@relation crop_recommend_dosm

@attribute location {Johor,Kedah,Kelantan,Melaka,'Negeri Sembilan',Pahang,Perak,Perlis,'Pulau Pinang',Sabah,Sarawak,Selangor,Terengganu,'Wilayah Persekutuan'}
@attribute soil {Clay,Loam,Sandy,Silty}
@attribute water numeric
@attribute fertilizerStock numeric
@attribute budget numeric
@attribute land numeric
@attribute npkBand numeric
@attribute crop {Tomato,Lettuce,Chili,Corn,Paddy,Papaya,Durian}

@data
Pahang,Sandy,139.1,20.0,6121.6,6.2,2,Chili
Sarawak,Loam,283.8,11.9,14023.5,9.6,2,Durian
Kedah,Clay,146.5,21.7,17088.2,6.7,1,Paddy
Perak,Loam,169.1,26.0,8855.0,10.7,2,Corn
Melaka,Loam,115.1,13.1,8200.1,4.4,1,Papaya
Sarawak,Sandy,108.6,14.3,11342.1,7.0,2,Durian
Perlis,Loam,150.9,17.0,13379.9,6.5,0,Durian
Sabah,Loam,114.3,26.4,18165.1,6.9,2,Durian
'Negeri Sembilan',Loam,91.9,15.3,4398.6,5.0,1,Durian
Selangor,Clay,196.6,29.9,12530.5,6.1,1,Corn
Selangor,Clay,146.4,18.3,13132.1,7.1,1,Corn
Perak,Loam,123.0,32.8,21506.0,6.2,2,Papaya
Perlis,Sandy,183.9,16.9,13890.1,2.8,0,Paddy
Sabah,Sandy,116.1,9.9,7385.2,1.9,2,Tomato
Johor,Loam,103.2,34.7,17724.0,9.5,2,Durian
Johor,Clay,203.7,21.2,12879.9,11.4,2,Corn
Melaka,Loam,111.5,31.9,15860.2,8.9,1,Papaya
Pahang,Sandy,130.9,19.9,11665.9,3.1,2,Lettuce
Terengganu,Loam,187.3,14.9,11531.4,6.4,2,Corn
Selangor,Loam,192.3,28.8,8061.6,9.1,1,Corn
Terengganu,Clay,166.4,21.3,12766.1,7.8,2,Chili
Perlis,Loam,195.7,23.6,7813.9,5.3,0,Papaya
Sarawak,Loam,114.8,13.3,6727.6,2.8,2,Papaya
'Wilayah Persekutuan',Sandy,174.7,13.5,7115.5,6.4,1,Chili
'Pulau Pinang',Loam,220.4,25.0,7460.9,6.1,1,Durian
Kedah,Sandy,98.4,15.0,5668.6,5.0,1,Lettuce
Johor,Clay,208.6,21.9,8638.1,5.5,2,Tomato
Selangor,Loam,287.5,18.2,11857.7,6.1,1,Paddy
Sabah,Silty,216.0,16.8,10044.9,7.7,2,Corn
'Wilayah Persekutuan',Loam,118.3,6.7,4011.0,4.3,1,Lettuce
'Wilayah Persekutuan',Loam,156.1,19.9,19779.6,9.3,1,Tomato
Pahang,Clay,152.7,22.0,8788.1,3.8,2,Tomato
Perak,Loam,208.8,24.4,11950.4,11.8,2,Corn
Melaka,Clay,180.1,18.4,10708.2,11.6,1,Corn
Melaka,Sandy,158.9,10.2,6489.4,3.4,1,Chili
Perak,Silty,76.2,10.5,5142.8,1.7,2,Tomato
Melaka,Loam,141.4,29.5,14230.5,10.2,1,Durian
Pahang,Loam,329.3,11.5,15971.6,5.6,2,Tomato
Pahang,Silty,82.1,8.0,9042.2,2.7,2,Lettuce
Pahang,Clay,169.4,24.4,11204.7,6.1,2,Tomato
Melaka,Loam,190.0,20.9,11054.2,10.6,1,Corn
Johor,Clay,169.0,32.0,20531.3,7.0,2,Tomato
Johor,Clay,111.3,23.3,18762.3,8.1,2,Papaya
Pahang,Loam,151.3,23.2,18031.9,7.7,2,Durian
Kedah,Clay,175.1,18.4,9432.7,5.7,1,Tomato
Pahang,Sandy,108.7,17.3,5050.8,4.9,2,Chili
Johor,Sandy,101.5,15.0,5320.3,5.7,2,Chili
Perak,Clay,144.4,14.1,14008.8,9.4,2,Corn
Melaka,Sandy,189.6,21.4,11834.8,3.1,1,Papaya
Sabah,Sandy,155.8,16.3,10675.8,2.7,2,Tomato
'Wilayah Persekutuan',Silty,193.6,22.7,14413.1,5.9,1,Durian
'Pulau Pinang',Loam,286.3,14.7,7364.9,6.3,1,Paddy
Kelantan,Loam,166.7,20.5,8131.4,5.4,2,Papaya
Perlis,Clay,150.4,20.5,9040.1,5.3,0,Paddy
Perak,Silty,117.1,10.5,7263.0,4.2,2,Paddy
Sarawak,Clay,238.3,12.8,11807.7,10.0,2,Corn
'Negeri Sembilan',Clay,134.6,17.2,14908.4,8.7,1,Durian
Selangor,Clay,207.6,29.7,8390.9,8.7,1,Corn
Melaka,Loam,140.1,28.7,13098.6,7.4,1,Durian
Perlis,Clay,259.5,11.1,6566.0,6.1,0,Paddy
Pahang,Loam,98.5,7.7,9018.0,2.7,2,Lettuce
Melaka,Silty,92.0,14.3,3047.1,1.5,1,Lettuce
Sarawak,Loam,123.8,24.2,20612.7,6.5,2,Tomato
'Wilayah Persekutuan',Sandy,124.6,16.0,5848.7,4.1,1,Tomato
Johor,Sandy,157.2,20.9,12584.7,3.7,2,Papaya
Selangor,Clay,254.1,16.8,13210.1,7.2,1,Corn
Selangor,Clay,188.1,15.4,9792.5,10.5,1,Corn
'Pulau Pinang',Sandy,102.1,12.7,4843.4,2.5,1,Paddy
Johor,Loam,106.4,10.6,5696.4,3.5,2,Papaya
Selangor,Clay,273.5,23.7,10471.2,5.6,1,Paddy
Terengganu,Clay,306.7,23.0,14565.3,6.4,2,Paddy
Johor,Clay,269.6,30.0,15961.0,4.6,2,Durian
Melaka,Silty,115.8,10.5,6603.1,3.2,1,Tomato
Kelantan,Silty,90.6,11.8,3898.4,4.3,2,Lettuce
Sarawak,Loam,93.5,12.7,7656.3,4.3,2,Papaya
Pahang,Loam,156.8,20.4,8418.9,5.0,2,Tomato
Perak,Silty,187.5,15.1,12475.3,6.1,2,Lettuce
Perak,Clay,168.5,29.8,8426.0,12.0,2,Corn
Kelantan,Loam,145.2,22.9,14980.1,6.9,2,Durian
Melaka,Sandy,159.4,10.0,9466.5,6.3,1,Chili
Melaka,Sandy,157.1,15.2,5403.9,4.0,1,Chili
Pahang,Clay,205.7,17.1,7235.9,7.3,2,Tomato
Terengganu,Loam,280.9,19.5,8463.5,6.2,2,Tomato
Selangor,Loam,125.7,20.5,7495.6,2.8,1,Lettuce
'Negeri Sembilan',Clay,108.2,21.8,12554.9,7.0,1,Lettuce
Perlis,Clay,326.0,27.0,12316.3,10.5,0,Paddy
Perak,Clay,307.8,23.3,6857.1,6.8,2,Paddy
Kedah,Loam,212.5,20.8,15999.1,6.8,1,Paddy
Selangor,Loam,196.9,15.1,14785.6,8.1,1,Chili
Johor,Sandy,175.7,12.4,5126.5,2.9,2,Chili
'Wilayah Persekutuan',Clay,151.3,12.1,7353.3,4.2,1,Papaya
Kelantan,Clay,181.2,19.3,9368.7,4.3,2,Tomato
Kedah,Sandy,152.6,15.3,11502.0,4.5,1,Durian
Sarawak,Clay,166.5,24.5,10254.9,6.3,2,Corn
Pahang,Silty,88.4,12.8,4750.2,3.7,2,Lettuce
Perlis,Sandy,122.9,9.6,7263.0,3.9,0,Papaya
Melaka,Loam,139.3,35.0,16262.1,6.9,1,Durian
Kelantan,Loam,70.5,9.0,8756.2,3.8,2,Lettuce
Johor,Loam,180.1,9.7,6724.3,5.2,2,Tomato
Johor,Loam,183.1,16.8,13074.9,6.2,2,Corn
Melaka,Sandy,115.1,16.2,5809.8,5.2,1,Chili
Johor,Loam,257.4,28.7,15722.0,4.3,2,Papaya
'Wilayah Persekutuan',Loam,128.0,14.6,4310.3,2.1,1,Lettuce
Terengganu,Sandy,111.9,9.0,6740.9,2.7,2,Lettuce
'Negeri Sembilan',Sandy,128.6,15.7,9263.5,4.7,1,Chili
Perak,Loam,161.3,27.7,12216.8,6.5,2,Corn
'Wilayah Persekutuan',Loam,101.3,14.0,9396.3,3.2,1,Lettuce
Terengganu,Clay,265.3,12.3,13612.5,10.2,2,Paddy
Johor,Clay,286.5,10.1,13078.4,4.5,2,Durian
Perlis,Loam,246.3,27.4,8413.9,11.8,0,Paddy
Johor,Sandy,178.5,23.0,10364.4,4.9,2,Chili
Perak,Clay,159.2,25.5,13860.5,11.6,2,Corn
Perlis,Clay,207.4,19.9,9511.3,7.6,0,Paddy
Melaka,Loam,209.5,22.8,10030.6,9.9,1,Corn
Melaka,Loam,142.8,27.4,15460.4,7.3,1,Paddy
Sabah,Silty,141.7,14.5,11235.3,5.3,2,Paddy
Johor,Loam,185.1,13.2,12731.0,5.1,2,Tomato
Pahang,Sandy,100.9,13.7,11686.5,5.2,2,Chili
Selangor,Silty,157.8,26.8,9223.4,3.6,1,Paddy
Johor,Sandy,161.4,14.8,7206.6,3.5,2,Chili
Selangor,Clay,176.6,20.2,14186.3,5.2,1,Durian
'Pulau Pinang',Loam,113.2,8.3,9704.4,7.0,1,Paddy
'Wilayah Persekutuan',Clay,163.8,18.6,14114.9,5.1,1,Durian
Johor,Clay,166.4,25.9,13457.6,6.7,2,Corn
Terengganu,Loam,121.5,18.4,21792.2,7.3,2,Papaya
Johor,Silty,211.8,18.8,9183.5,6.2,2,Corn
Perak,Loam,156.6,16.6,15657.1,10.9,2,Tomato
Kelantan,Sandy,109.8,18.9,5558.7,2.8,2,Chili
Sarawak,Loam,178.8,22.2,14984.7,11.3,2,Corn
Terengganu,Loam,95.4,10.7,5853.0,4.2,2,Tomato
Pahang,Clay,132.0,34.8,15705.8,11.0,2,Tomato
'Negeri Sembilan',Clay,284.4,13.4,9807.3,5.1,1,Lettuce
Kedah,Sandy,126.4,10.0,8317.3,6.2,1,Durian
Johor,Clay,142.8,14.1,9228.8,6.5,2,Tomato
'Pulau Pinang',Sandy,121.5,5.5,3692.8,2.1,1,Paddy
'Wilayah Persekutuan',Silty,75.7,5.6,5330.0,2.3,1,Lettuce
Perak,Sandy,105.5,8.1,5788.7,6.6,2,Lettuce
Melaka,Loam,163.8,14.5,7144.3,5.1,1,Tomato
Johor,Sandy,159.9,15.3,5400.7,3.9,2,Chili
Melaka,Loam,113.0,21.3,16242.2,6.6,1,Durian
Perlis,Silty,100.4,11.1,5650.5,4.4,0,Papaya
Pahang,Silty,71.3,11.5,9420.6,4.2,2,Lettuce
Kelantan,Sandy,159.1,20.0,8064.1,4.4,2,Chili
Sabah,Loam,117.9,20.3,17275.4,8.2,2,Durian
Selangor,Loam,168.9,19.7,13101.6,3.2,1,Paddy
Sabah,Loam,148.0,17.3,19013.4,5.1,2,Durian
'Pulau Pinang',Silty,158.5,13.1,7288.5,4.8,1,Paddy
Melaka,Clay,193.8,15.5,7174.2,4.9,1,Durian
Terengganu,Loam,261.7,24.3,10276.4,7.1,2,Papaya
'Pulau Pinang',Sandy,95.4,9.0,4928.9,3.9,1,Chili
Melaka,Clay,146.4,25.7,10250.7,4.4,1,Tomato
Perlis,Loam,297.8,19.6,11907.9,9.2,0,Paddy
Johor,Clay,157.6,20.6,13475.4,3.5,2,Tomato
Selangor,Sandy,120.6,18.2,9707.8,4.6,1,Papaya
Kelantan,Clay,266.1,24.9,9726.5,5.0,2,Paddy
'Wilayah Persekutuan',Loam,155.7,16.6,21016.4,7.1,1,Durian
Pahang,Sandy,159.9,22.9,9434.8,4.5,2,Chili
Pahang,Clay,167.1,24.6,9034.0,3.6,2,Tomato
Melaka,Loam,296.8,24.2,11500.0,6.3,1,Durian
'Pulau Pinang',Clay,122.2,20.1,13942.2,8.7,1,Chili
Kedah,Loam,327.8,16.7,14882.1,9.2,1,Paddy
Johor,Sandy,157.9,20.6,8646.1,6.4,2,Chili
Perlis,Clay,334.9,13.7,12889.1,7.0,0,Paddy
Sarawak,Silty,92.2,11.0,3371.9,4.0,2,Lettuce
Melaka,Loam,194.3,27.1,9976.1,7.7,1,Corn
Sabah,Loam,116.7,10.6,10584.8,3.2,2,Papaya
Sarawak,Sandy,100.4,22.9,11183.5,5.5,2,Corn
Sarawak,Loam,144.8,28.5,13798.6,4.9,2,Durian
Perak,Loam,123.5,8.2,5801.0,3.1,2,Papaya
Johor,Clay,209.1,13.5,7359.7,4.6,2,Tomato
Terengganu,Sandy,105.5,22.3,7825.1,4.0,2,Papaya
Johor,Loam,126.1,20.6,13192.9,6.2,2,Papaya
Johor,Sandy,167.4,23.0,7785.8,3.7,2,Chili
Melaka,Clay,277.4,16.1,7619.7,11.5,1,Chili
Terengganu,Loam,206.5,24.3,11469.2,7.3,2,Chili
Kelantan,Loam,171.7,25.8,11832.3,6.5,2,Tomato
'Wilayah Persekutuan',Silty,212.4,25.6,8855.2,3.8,1,Chili
Johor,Loam,163.3,12.4,7702.6,4.5,2,Papaya
'Negeri Sembilan',Sandy,151.8,21.7,10636.3,6.7,1,Papaya
Pahang,Sandy,119.9,22.4,10578.5,5.8,2,Chili
Kedah,Sandy,108.4,14.9,12801.7,3.4,1,Paddy
'Pulau Pinang',Loam,195.0,18.9,13043.8,5.1,1,Paddy
Perak,Loam,187.8,23.6,7807.8,11.8,2,Corn
Perlis,Sandy,105.1,11.2,5551.5,2.6,0,Chili
Sabah,Loam,177.1,21.6,7723.5,6.3,2,Paddy
Terengganu,Sandy,88.2,11.2,6244.2,1.6,2,Chili
'Negeri Sembilan',Sandy,165.0,14.0,13065.5,3.9,1,Papaya
Pahang,Clay,187.6,24.4,7011.7,4.8,2,Tomato
Perak,Loam,134.4,21.4,7327.9,6.7,2,Lettuce
Melaka,Sandy,186.1,20.8,10261.0,3.9,1,Chili
Pahang,Sandy,197.3,10.3,7518.4,2.7,2,Chili
'Wilayah Persekutuan',Loam,83.6,12.3,4960.5,1.9,1,Lettuce
Sarawak,Loam,138.2,16.7,10962.4,4.9,2,Lettuce
'Wilayah Persekutuan',Silty,99.3,12.9,5225.7,2.8,1,Lettuce
Melaka,Loam,84.8,10.0,9448.3,3.3,1,Lettuce
'Wilayah Persekutuan',Loam,182.6,12.1,7057.5,4.0,1,Tomato
Selangor,Clay,155.8,19.2,13434.6,11.1,1,Corn
Perak,Loam,168.0,29.1,11395.8,10.6,2,Corn
Perak,Loam,173.7,25.9,14257.5,6.5,2,Corn
Sarawak,Loam,337.9,22.5,14424.1,8.6,2,Paddy
Perlis,Sandy,171.7,9.7,8730.2,7.1,0,Paddy
Pahang,Silty,101.1,10.6,8234.9,2.5,2,Chili
'Pulau Pinang',Sandy,176.4,16.7,5380.4,4.9,1,Papaya
'Wilayah Persekutuan',Loam,108.2,15.8,7198.3,2.5,1,Lettuce
Sabah,Loam,265.1,17.0,9207.4,8.8,2,Tomato
Pahang,Clay,165.9,14.7,7056.2,5.7,2,Tomato
Selangor,Sandy,138.7,10.2,11478.4,5.7,1,Paddy
Johor,Sandy,150.6,12.7,6449.8,4.7,2,Chili
Perak,Loam,105.1,10.1,3824.5,1.7,2,Corn
Selangor,Loam,155.3,18.1,13148.0,6.0,1,Corn
'Wilayah Persekutuan',Loam,110.6,12.1,7995.4,4.8,1,Durian
Melaka,Loam,125.3,15.7,13557.4,7.8,1,Durian
'Negeri Sembilan',Loam,94.8,11.2,4548.9,2.0,1,Durian
Melaka,Sandy,169.0,13.1,6803.4,4.4,1,Chili
Johor,Loam,319.4,20.2,7989.1,7.0,2,Chili
Perlis,Sandy,101.3,12.7,3320.4,2.1,0,Paddy
Terengganu,Loam,140.0,24.5,12327.1,8.8,2,Corn
Melaka,Loam,140.1,18.5,11976.2,4.4,1,Tomato
Kelantan,Clay,193.4,19.5,11723.8,5.4,2,Tomato
Terengganu,Loam,125.1,16.2,11044.0,5.2,2,Durian
Melaka,Loam,241.4,12.5,10496.0,5.1,1,Durian
Johor,Loam,74.2,12.3,5311.4,2.6,2,Tomato
Perlis,Clay,277.3,25.8,9880.9,11.3,0,Paddy
Sarawak,Loam,123.1,21.1,18397.2,10.5,2,Durian
Selangor,Loam,70.3,7.6,3822.6,3.4,1,Lettuce
Johor,Silty,100.5,7.4,6082.9,3.4,2,Lettuce
Sabah,Loam,167.8,26.2,18598.3,9.0,2,Durian
Pahang,Sandy,109.8,18.0,10582.7,5.8,2,Chili
'Wilayah Persekutuan',Sandy,163.4,12.8,6273.9,6.3,1,Chili
Sarawak,Loam,196.7,27.6,7012.6,3.6,2,Papaya
Kelantan,Silty,113.2,15.3,3688.9,1.7,2,Lettuce
Kelantan,Silty,190.8,21.2,13914.0,6.9,2,Chili
Melaka,Sandy,118.1,12.5,9669.5,2.0,1,Corn
Kelantan,Clay,145.9,19.5,8922.6,5.3,2,Tomato
Johor,Sandy,135.8,12.3,8089.6,4.5,2,Chili
Sabah,Loam,106.7,13.2,7156.6,3.3,2,Papaya
Terengganu,Loam,147.6,17.7,8640.0,4.9,2,Tomato
Kedah,Sandy,83.3,5.7,8767.0,4.7,1,Papaya
'Pulau Pinang',Loam,150.0,27.6,20112.7,5.9,1,Papaya
Melaka,Sandy,187.1,12.8,11037.0,4.4,1,Chili
Perlis,Clay,249.8,13.3,8141.1,9.2,0,Paddy
Perlis,Clay,139.1,26.1,13504.1,6.2,0,Papaya
Johor,Sandy,134.6,14.3,11912.7,2.8,2,Chili
Pahang,Sandy,180.3,17.5,8094.4,2.7,2,Chili
'Negeri Sembilan',Sandy,189.5,13.8,7189.5,4.4,1,Papaya
Perlis,Clay,333.0,16.4,8063.8,11.1,0,Paddy
Johor,Sandy,118.2,15.3,9494.3,3.5,2,Chili
Sabah,Clay,256.2,13.1,11363.5,4.9,2,Tomato
Johor,Clay,158.1,22.7,16197.2,6.3,2,Durian
'Wilayah Persekutuan',Loam,144.2,24.9,8639.8,4.3,1,Tomato
Melaka,Loam,155.3,14.6,17094.2,6.9,1,Papaya
Sarawak,Clay,167.9,15.7,10122.9,10.2,2,Corn
Perak,Clay,183.2,21.9,14057.6,11.8,2,Corn
Kedah,Sandy,74.9,7.6,6863.9,2.0,1,Lettuce
Johor,Loam,143.9,12.8,12879.5,4.3,2,Papaya
'Wilayah Persekutuan',Clay,224.8,23.2,7795.5,5.5,1,Corn
Sabah,Clay,158.8,17.1,11324.3,6.6,2,Lettuce
Melaka,Loam,191.3,24.6,7835.5,5.7,1,Corn
Johor,Loam,186.4,29.4,12558.9,11.2,2,Corn
Kelantan,Loam,103.9,10.2,4136.0,2.9,2,Lettuce
Terengganu,Sandy,138.5,15.3,11625.6,5.9,2,Durian
Melaka,Loam,192.3,16.3,8427.8,6.5,1,Paddy
Melaka,Sandy,102.5,10.2,10743.7,5.2,1,Chili
Kelantan,Loam,145.9,16.4,12891.7,4.0,2,Tomato
'Negeri Sembilan',Loam,113.1,23.4,17102.1,7.2,1,Papaya
Pahang,Sandy,159.2,9.0,10962.0,3.2,2,Lettuce
Melaka,Loam,195.4,12.8,11505.9,2.6,1,Durian
Kelantan,Sandy,140.4,17.2,10192.7,4.5,2,Chili
'Wilayah Persekutuan',Sandy,88.8,14.8,5208.8,5.0,1,Lettuce
Kedah,Sandy,77.9,15.0,5287.0,3.0,1,Papaya
Sabah,Silty,116.3,15.4,8756.4,4.7,2,Papaya
Selangor,Clay,251.8,29.3,8132.3,4.4,1,Corn
'Negeri Sembilan',Loam,113.6,25.2,19565.2,6.9,1,Durian
Kedah,Loam,255.2,16.7,12701.3,10.9,1,Paddy
Pahang,Loam,191.2,11.9,10969.5,5.3,2,Papaya
Perak,Loam,161.5,22.8,9393.9,11.2,2,Corn
Johor,Loam,160.5,19.9,8499.9,7.8,2,Corn
Selangor,Loam,170.1,23.7,12183.2,7.9,1,Durian
Pahang,Sandy,123.3,13.5,12556.2,6.9,2,Lettuce
Kelantan,Clay,101.1,19.6,12394.3,7.2,2,Papaya
Melaka,Clay,173.5,22.4,9622.8,10.0,1,Corn
Kelantan,Clay,182.2,15.6,8764.1,8.9,2,Corn
'Negeri Sembilan',Loam,297.5,12.8,9028.3,6.0,1,Durian
'Negeri Sembilan',Loam,163.4,24.8,12143.7,9.9,1,Durian
Johor,Clay,158.4,21.8,9847.0,11.4,2,Corn
Kelantan,Clay,154.2,30.6,17555.8,6.3,2,Corn
Sarawak,Silty,150.2,11.9,13540.4,7.9,2,Papaya
'Pulau Pinang',Loam,135.1,20.9,13170.7,6.7,1,Paddy
Terengganu,Loam,103.6,10.8,10934.7,6.4,2,Papaya
Pahang,Sandy,124.9,14.8,9099.5,4.4,2,Chili
Johor,Loam,153.1,18.3,7686.3,3.4,2,Papaya
Sarawak,Clay,114.0,20.0,16855.0,9.5,2,Papaya
Melaka,Clay,206.1,18.2,11620.9,5.7,1,Tomato
Sabah,Clay,197.0,16.7,13817.0,6.2,2,Durian
'Wilayah Persekutuan',Loam,163.9,27.8,21587.4,8.0,1,Durian
Terengganu,Loam,133.6,20.5,14988.3,9.8,2,Chili
Melaka,Sandy,159.3,21.6,13393.6,4.9,1,Papaya
'Negeri Sembilan',Silty,112.8,5.9,4079.5,4.0,1,Lettuce
'Negeri Sembilan',Clay,120.2,17.9,20261.8,8.5,1,Papaya
'Wilayah Persekutuan',Sandy,148.5,22.7,9655.0,3.5,1,Chili
'Pulau Pinang',Clay,212.7,18.7,8817.0,4.0,1,Paddy
'Wilayah Persekutuan',Loam,156.5,21.1,12253.7,6.0,1,Durian
Pahang,Silty,73.4,14.0,3383.5,3.3,2,Lettuce
'Pulau Pinang',Clay,242.9,22.8,7987.2,11.1,1,Lettuce
Johor,Clay,140.6,15.9,10166.8,6.3,2,Tomato
Johor,Loam,158.6,28.7,18542.2,9.6,2,Durian
Kelantan,Sandy,189.0,16.2,11141.3,3.0,2,Chili
Sarawak,Clay,150.5,20.9,8981.6,8.9,2,Corn
Pahang,Clay,202.2,18.7,9677.0,4.6,2,Tomato
Selangor,Loam,115.6,23.5,9915.3,5.0,1,Papaya
Kedah,Loam,198.8,12.8,13658.3,6.0,1,Paddy
Perak,Loam,155.2,21.7,9677.2,7.1,2,Paddy
Perlis,Silty,151.3,10.8,11581.7,5.7,0,Durian
Johor,Clay,124.5,27.3,21882.4,10.7,2,Durian
'Wilayah Persekutuan',Loam,75.4,14.0,4648.2,2.2,1,Papaya
Perlis,Loam,222.8,24.5,10871.9,6.6,0,Paddy
Kelantan,Clay,176.6,27.4,7486.6,6.1,2,Tomato
Pahang,Loam,132.3,12.5,9925.8,3.2,2,Tomato
Melaka,Sandy,168.4,21.5,10554.9,2.6,1,Chili
Perlis,Loam,76.1,14.5,8176.4,4.5,0,Durian
'Wilayah Persekutuan',Sandy,123.3,22.6,7861.5,5.0,1,Chili
Melaka,Sandy,171.7,14.2,9711.4,4.7,1,Chili
Kedah,Clay,155.1,27.1,18273.0,10.6,1,Paddy
Sarawak,Sandy,121.7,18.6,9083.6,4.7,2,Lettuce
Kedah,Sandy,173.4,23.4,7430.7,6.5,1,Chili
Kedah,Silty,199.7,12.5,7558.5,7.7,1,Paddy
Kelantan,Clay,131.6,18.8,14728.2,7.4,2,Tomato
'Wilayah Persekutuan',Clay,242.9,17.7,12389.5,9.6,1,Durian
Pahang,Loam,82.1,6.0,4561.2,2.2,2,Lettuce
Perak,Loam,161.1,21.8,12919.6,6.1,2,Tomato
Johor,Loam,142.3,23.3,13958.8,5.3,2,Tomato
'Negeri Sembilan',Loam,164.0,20.9,12562.3,6.1,1,Paddy
'Wilayah Persekutuan',Silty,105.1,8.6,5947.0,3.7,1,Lettuce
Perak,Sandy,187.1,10.4,13931.1,4.2,2,Chili
Kelantan,Sandy,187.7,11.1,11369.6,6.0,2,Chili
'Wilayah Persekutuan',Sandy,122.9,18.4,11662.4,5.9,1,Chili
Sabah,Loam,214.9,26.2,9815.5,10.2,2,Paddy
Selangor,Loam,156.4,14.1,13892.7,7.6,1,Corn
Kelantan,Loam,81.5,6.8,6294.7,3.5,2,Lettuce
Melaka,Sandy,125.5,17.9,8365.9,3.8,1,Chili
Kedah,Clay,157.5,13.4,9005.0,7.7,1,Tomato
Kelantan,Sandy,108.0,11.0,5276.3,5.0,2,Papaya
Kelantan,Clay,206.5,15.8,8910.0,5.2,2,Tomato
'Pulau Pinang',Sandy,93.9,6.5,9046.8,1.9,1,Paddy
Kelantan,Sandy,166.3,18.3,10374.3,2.6,2,Lettuce
Selangor,Loam,167.4,21.7,9485.6,5.5,1,Corn
Kelantan,Sandy,157.7,20.0,11279.1,4.1,2,Chili
'Wilayah Persekutuan',Sandy,183.6,15.2,6669.8,2.9,1,Chili
Melaka,Clay,205.9,14.5,9769.3,5.0,1,Tomato
Kelantan,Loam,107.2,19.4,12908.5,5.5,2,Papaya
'Wilayah Persekutuan',Silty,117.9,9.1,8725.3,3.5,1,Lettuce
Perak,Loam,70.7,7.3,7852.2,2.7,2,Papaya
Melaka,Clay,132.6,21.0,17424.7,8.1,1,Durian
Johor,Loam,129.2,17.4,10997.1,5.7,2,Papaya
Melaka,Loam,180.0,21.3,12011.0,6.4,1,Corn
Johor,Loam,217.5,26.7,13789.6,4.4,2,Papaya
Terengganu,Loam,247.9,22.8,6768.3,5.6,2,Papaya
Selangor,Loam,232.0,20.4,12814.1,10.6,1,Paddy
Pahang,Loam,102.7,10.3,9388.7,3.3,2,Durian
Pahang,Loam,331.4,12.6,14608.1,8.5,2,Tomato
Melaka,Loam,188.7,10.8,9120.1,6.4,1,Papaya
Johor,Loam,106.7,6.7,8085.8,4.2,2,Lettuce
Johor,Sandy,128.6,11.5,7263.0,6.8,2,Papaya
'Wilayah Persekutuan',Loam,208.6,25.5,7220.8,5.0,1,Tomato
Johor,Sandy,111.2,20.4,6179.2,5.2,2,Chili
Perak,Loam,164.9,20.8,6017.5,6.0,2,Lettuce
Sabah,Silty,152.8,19.6,10595.1,8.0,2,Corn
'Negeri Sembilan',Clay,236.8,25.0,14087.3,4.5,1,Papaya
Perlis,Clay,262.4,10.7,11491.0,10.6,0,Paddy
Johor,Sandy,167.5,13.2,10130.1,3.9,2,Chili
Pahang,Loam,94.7,11.1,3426.9,2.5,2,Durian
Selangor,Clay,201.4,17.4,8506.6,9.1,1,Corn
'Pulau Pinang',Loam,171.2,17.6,13511.4,6.6,1,Papaya
Terengganu,Loam,280.5,23.5,9070.7,10.9,2,Paddy
Johor,Clay,155.6,34.2,19095.6,8.8,2,Durian
Johor,Loam,174.3,25.2,10453.5,10.8,2,Corn
Selangor,Clay,115.4,20.2,12724.7,9.7,1,Durian
Terengganu,Sandy,198.6,14.0,8512.7,5.4,2,Papaya
'Wilayah Persekutuan',Sandy,154.7,15.3,7251.5,4.3,1,Chili
'Negeri Sembilan',Loam,167.6,10.4,7836.4,5.8,1,Papaya
Pahang,Loam,105.8,12.8,3181.8,3.1,2,Lettuce
Melaka,Sandy,126.1,23.2,13412.0,4.4,1,Papaya
'Negeri Sembilan',Loam,164.3,25.0,13650.7,8.5,1,Durian
Johor,Clay,135.6,25.9,21001.3,7.8,2,Durian
Sarawak,Sandy,183.5,12.8,11524.7,4.1,2,Chili
'Negeri Sembilan',Clay,130.2,29.4,21520.4,7.2,1,Durian
Pahang,Loam,85.6,8.3,7617.0,1.7,2,Lettuce
Johor,Sandy,144.2,23.0,11582.0,6.4,2,Chili
Perak,Loam,148.9,18.6,5820.2,5.2,2,Chili
Terengganu,Clay,318.0,15.5,9150.3,8.9,2,Paddy
'Pulau Pinang',Clay,173.0,25.4,8459.3,5.1,1,Paddy
'Negeri Sembilan',Sandy,179.1,13.8,13059.5,5.2,1,Durian
Kelantan,Silty,174.1,22.4,9812.4,3.7,2,Paddy
Melaka,Clay,152.0,22.5,21241.6,10.6,1,Durian
'Wilayah Persekutuan',Loam,111.9,5.2,5016.1,2.2,1,Papaya
Sabah,Loam,324.2,27.8,14148.6,4.2,2,Durian
Kelantan,Clay,148.7,22.6,12648.1,4.8,2,Tomato
'Negeri Sembilan',Clay,319.1,11.5,14180.0,4.4,1,Tomato
Terengganu,Silty,70.8,12.4,7704.7,2.9,2,Papaya
'Wilayah Persekutuan',Clay,155.5,20.7,16262.0,9.3,1,Durian
Kelantan,Clay,230.2,25.1,6497.6,4.7,2,Tomato
'Pulau Pinang',Loam,119.7,16.6,15822.6,4.6,1,Papaya
Melaka,Silty,83.4,14.0,3423.4,2.4,1,Lettuce
Sabah,Silty,180.4,14.0,9318.3,5.7,2,Papaya
Johor,Sandy,82.6,8.8,7812.5,4.5,2,Lettuce
Pahang,Loam,104.8,25.8,17713.5,5.6,2,Durian
Johor,Loam,323.4,27.2,8224.3,10.5,2,Durian
'Wilayah Persekutuan',Sandy,165.2,10.6,8587.5,5.8,1,Chili
Sarawak,Loam,182.2,15.1,12995.1,12.0,2,Corn
'Wilayah Persekutuan',Sandy,117.3,10.5,9429.7,6.5,1,Papaya
Terengganu,Loam,125.5,18.2,13202.9,10.0,2,Durian
Johor,Sandy,140.0,18.4,5340.7,4.0,2,Chili
Johor,Loam,240.5,16.7,14930.3,4.6,2,Tomato
Kedah,Clay,138.4,33.5,15819.3,9.0,1,Lettuce
Sabah,Loam,162.7,24.6,21944.0,5.6,2,Durian
Melaka,Clay,123.9,18.0,13417.4,6.6,1,Durian
Terengganu,Sandy,99.9,10.6,6797.1,4.3,2,Papaya
Sarawak,Clay,271.4,24.8,15604.1,4.6,2,Paddy
'Wilayah Persekutuan',Silty,83.1,14.2,6916.1,1.7,1,Lettuce
Johor,Loam,108.5,9.4,9868.0,3.4,2,Papaya
'Wilayah Persekutuan',Loam,129.5,15.4,8894.9,4.6,1,Papaya
'Negeri Sembilan',Silty,118.9,13.0,5232.3,3.6,1,Tomato
Melaka,Sandy,152.7,20.3,10267.2,6.2,1,Chili
'Wilayah Persekutuan',Loam,173.7,22.8,7994.5,4.6,1,Papaya
Sabah,Clay,106.3,20.8,18134.3,9.1,2,Durian
Kelantan,Loam,140.5,25.8,10830.6,3.8,2,Tomato
'Wilayah Persekutuan',Clay,202.5,15.6,12649.5,6.2,1,Tomato
Melaka,Loam,87.9,6.2,8497.5,4.3,1,Lettuce
Selangor,Loam,150.7,24.2,12057.6,5.6,1,Corn
Kelantan,Clay,145.0,25.1,10998.6,6.4,2,Lettuce
Kelantan,Silty,189.1,21.6,7210.0,8.6,2,Papaya
Sabah,Loam,139.1,25.7,19207.2,9.5,2,Papaya
'Negeri Sembilan',Clay,217.5,15.9,12073.0,7.8,1,Durian
Johor,Clay,198.5,17.6,8367.7,6.1,2,Corn
Johor,Clay,151.9,14.7,11432.9,5.5,2,Tomato
Selangor,Loam,121.9,12.5,6737.7,2.6,1,Lettuce
'Pulau Pinang',Clay,154.0,23.3,19113.8,4.7,1,Paddy
'Wilayah Persekutuan',Sandy,173.5,10.0,5488.9,5.3,1,Chili
Johor,Sandy,183.9,16.6,7359.2,4.2,2,Chili
Pahang,Sandy,161.0,12.1,7506.6,3.4,2,Chili
'Negeri Sembilan',Clay,159.3,14.1,13860.3,4.3,1,Chili
Perak,Clay,283.1,12.0,8860.9,8.3,2,Lettuce
Perak,Clay,254.6,24.3,12863.2,9.1,2,Corn
'Pulau Pinang',Sandy,121.9,14.6,6284.4,5.4,1,Tomato
Melaka,Clay,230.6,18.3,10644.4,6.7,1,Paddy
Selangor,Loam,107.3,13.8,9617.6,4.3,1,Durian
Melaka,Sandy,161.0,23.6,9856.0,3.8,1,Chili
'Negeri Sembilan',Clay,161.2,14.7,13891.0,10.1,1,Durian
'Wilayah Persekutuan',Clay,150.6,22.2,15585.5,10.6,1,Tomato
Sabah,Clay,248.0,27.7,9865.2,11.8,2,Durian
Perlis,Silty,185.6,16.8,10028.1,6.7,0,Paddy
Johor,Silty,177.8,24.1,13460.0,4.5,2,Lettuce
Johor,Clay,159.3,23.5,20677.6,9.2,2,Durian
Johor,Clay,191.8,16.1,7840.8,9.2,2,Corn
Sabah,Clay,318.6,12.6,14734.9,5.6,2,Corn
Perlis,Loam,196.1,11.3,14424.4,4.1,0,Paddy
Kedah,Loam,167.8,17.7,9964.6,6.3,1,Papaya
Pahang,Sandy,106.6,19.7,10248.2,4.0,2,Chili
Perak,Sandy,147.6,9.3,13125.0,6.1,2,Chili
Kedah,Clay,216.3,21.3,14099.5,6.2,1,Durian
'Wilayah Persekutuan',Clay,163.5,21.8,18526.9,7.5,1,Durian
Perak,Loam,175.0,10.6,13162.0,6.6,2,Papaya
Johor,Loam,152.1,20.3,20675.3,9.8,2,Durian
'Wilayah Persekutuan',Loam,127.2,22.5,18118.8,10.7,1,Chili
'Negeri Sembilan',Loam,125.7,21.1,13698.6,5.7,1,Papaya
'Negeri Sembilan',Clay,145.1,24.8,12364.9,9.5,1,Durian
Perak,Clay,192.0,27.8,11636.6,9.4,2,Corn
'Wilayah Persekutuan',Loam,141.7,10.4,11468.2,6.9,1,Papaya
Perlis,Loam,326.8,13.9,11138.9,11.6,0,Papaya
Kelantan,Loam,192.4,16.3,12210.3,6.1,2,Chili
Johor,Sandy,129.0,13.9,6702.6,3.8,2,Lettuce
Selangor,Clay,179.7,22.5,11351.2,6.0,1,Corn
Sarawak,Loam,205.6,15.5,14806.2,6.7,2,Corn
Kedah,Loam,302.5,15.0,8148.2,7.7,1,Paddy
'Wilayah Persekutuan',Sandy,133.4,9.6,12628.7,4.7,1,Corn
Melaka,Loam,294.6,25.3,10165.9,9.1,1,Corn
Johor,Loam,194.7,19.5,9542.5,6.2,2,Tomato
Melaka,Silty,74.7,6.6,3233.4,2.4,1,Lettuce
Pahang,Sandy,189.3,11.7,11524.9,3.1,2,Chili
'Negeri Sembilan',Clay,141.6,18.1,12176.7,6.5,1,Durian
'Negeri Sembilan',Sandy,173.6,19.7,9685.3,3.0,1,Papaya
Melaka,Sandy,90.2,14.1,6726.4,4.0,1,Paddy
Johor,Silty,71.2,12.8,5652.5,3.9,2,Lettuce
Melaka,Silty,206.0,23.7,12442.7,6.8,1,Durian
Terengganu,Loam,82.1,12.0,9818.8,1.8,2,Durian
Sarawak,Loam,169.5,26.2,14113.2,8.8,2,Corn
Perak,Loam,182.1,16.2,6430.8,4.1,2,Papaya
Selangor,Clay,171.6,27.0,13072.0,9.3,1,Corn
Melaka,Loam,131.9,13.1,12102.5,3.3,1,Papaya
Selangor,Sandy,164.5,9.7,9865.7,4.7,1,Papaya
Terengganu,Clay,274.8,10.5,7791.0,8.8,2,Paddy
Pahang,Silty,94.5,14.2,7233.9,2.2,2,Lettuce
Perlis,Clay,338.7,15.4,7929.5,9.4,0,Paddy
Kelantan,Sandy,137.5,14.0,8016.6,3.2,2,Chili
Sabah,Clay,148.2,32.9,21005.2,7.3,2,Durian
'Wilayah Persekutuan',Loam,82.5,13.2,4469.1,2.2,1,Lettuce
Pahang,Loam,193.5,23.9,6563.4,3.7,2,Tomato
Perak,Sandy,92.5,14.1,8521.1,3.5,2,Tomato
Terengganu,Sandy,102.0,11.8,8383.8,3.0,2,Chili
Sabah,Clay,165.3,33.0,17050.9,11.0,2,Paddy
'Negeri Sembilan',Loam,138.4,19.8,12114.5,5.9,1,Papaya
Kelantan,Sandy,178.9,21.0,10016.7,2.6,2,Chili
Perlis,Loam,112.9,27.0,13780.2,5.2,0,Chili
Melaka,Clay,209.8,21.6,12686.9,5.7,1,Tomato
Kelantan,Silty,95.6,12.2,5982.7,2.9,2,Lettuce
'Wilayah Persekutuan',Loam,101.0,16.4,11174.7,10.8,1,Lettuce
'Wilayah Persekutuan',Sandy,184.4,11.8,6215.7,4.7,1,Chili
Sabah,Loam,145.1,15.6,14691.7,10.9,2,Durian
Johor,Loam,111.4,22.0,21884.8,8.7,2,Chili
Perlis,Loam,97.8,8.9,5138.3,3.4,0,Durian
Melaka,Loam,176.4,12.5,13901.8,5.9,1,Chili
Pahang,Clay,170.3,25.9,8644.2,5.5,2,Tomato
Melaka,Clay,263.7,24.3,7005.4,10.2,1,Lettuce
'Pulau Pinang',Loam,98.0,14.6,9544.0,3.4,1,Paddy
Sabah,Loam,98.3,8.7,8180.1,2.2,2,Chili
Pahang,Sandy,120.9,18.6,11277.5,3.7,2,Chili
Kelantan,Loam,164.5,16.0,11708.7,5.6,2,Tomato
Johor,Clay,306.4,14.9,7395.4,4.8,2,Paddy
Sarawak,Loam,301.6,12.3,10815.3,9.5,2,Durian
Selangor,Loam,170.2,21.7,11324.0,9.7,1,Corn
Melaka,Sandy,168.2,18.7,5419.5,4.0,1,Chili
Melaka,Sandy,128.7,10.9,6218.9,5.7,1,Tomato
Pahang,Clay,137.9,17.7,11417.6,4.9,2,Tomato
Sarawak,Sandy,173.4,17.4,6754.3,4.2,2,Lettuce
Sarawak,Loam,104.2,15.0,5131.9,4.8,2,Lettuce
Johor,Loam,190.5,17.3,11259.7,6.8,2,Papaya
Melaka,Loam,126.0,17.6,16631.1,10.3,1,Durian
Selangor,Loam,305.6,12.8,7930.9,9.8,1,Paddy
Sabah,Silty,160.3,27.3,10580.0,5.7,2,Chili
Melaka,Sandy,166.2,13.4,5241.6,5.8,1,Chili
Melaka,Loam,87.1,14.9,8428.5,1.9,1,Lettuce
Kelantan,Loam,109.7,10.6,8543.4,2.4,2,Lettuce
Pahang,Sandy,166.1,14.1,6365.5,3.1,2,Chili
Johor,Clay,180.2,25.3,8259.5,8.8,2,Lettuce
Sarawak,Sandy,137.2,21.3,7723.7,5.1,2,Papaya
Perak,Sandy,105.4,13.3,13769.6,4.5,2,Paddy
Melaka,Loam,312.4,13.7,13490.0,11.0,1,Paddy
Kelantan,Clay,142.7,29.8,19621.8,6.0,2,Paddy
Melaka,Sandy,126.2,12.2,9016.5,7.5,1,Corn
Johor,Silty,123.7,12.4,4408.8,1.7,2,Lettuce
'Negeri Sembilan',Loam,123.2,23.0,16082.6,9.7,1,Papaya
Selangor,Clay,245.9,23.9,10963.3,11.0,1,Paddy
Melaka,Clay,199.0,15.0,12044.1,4.3,1,Tomato
Perak,Loam,100.5,16.5,11575.9,7.3,2,Durian
Kelantan,Loam,100.2,9.6,4134.4,2.2,2,Paddy
Johor,Silty,73.5,14.7,9628.6,1.8,2,Lettuce
Melaka,Clay,180.0,10.8,8096.3,5.3,1,Durian
Melaka,Sandy,77.0,15.1,5065.3,3.7,1,Chili
Selangor,Clay,183.8,24.4,11335.7,6.6,1,Corn
Sabah,Loam,190.7,21.4,7433.0,6.4,2,Durian
'Wilayah Persekutuan',Loam,276.6,19.8,14854.1,7.8,1,Tomato
Melaka,Sandy,112.5,13.1,5667.5,4.8,1,Corn
Pahang,Loam,141.3,22.1,21595.7,6.5,2,Papaya
Sabah,Loam,160.4,11.1,8605.6,7.3,2,Paddy
Johor,Loam,148.5,24.5,13545.6,5.6,2,Durian
Melaka,Loam,81.2,9.9,6741.4,2.1,1,Lettuce
Melaka,Loam,209.4,24.5,10795.2,6.4,1,Corn
Perak,Sandy,174.1,19.6,10031.3,7.1,2,Durian
Sarawak,Loam,214.8,27.1,12670.0,10.7,2,Paddy
Perak,Clay,145.6,24.8,20510.9,10.8,2,Durian
Perak,Silty,195.5,10.7,14116.6,5.3,2,Chili
Terengganu,Loam,150.3,16.6,13476.4,6.7,2,Corn
Perlis,Loam,131.2,17.8,21435.8,8.8,0,Paddy
Selangor,Sandy,179.0,13.9,9178.7,5.7,1,Papaya
Perlis,Sandy,120.6,21.3,12907.7,6.2,0,Lettuce
'Pulau Pinang',Clay,164.6,24.8,15460.0,10.8,1,Paddy
Kelantan,Loam,238.2,18.9,8361.1,6.9,2,Durian
'Negeri Sembilan',Sandy,157.3,12.3,9888.0,7.5,1,Papaya
Melaka,Loam,128.6,8.1,5967.5,3.2,1,Lettuce
Kedah,Clay,189.6,14.3,14302.6,4.3,1,Chili
Perak,Loam,207.9,28.4,8855.0,9.4,2,Corn
'Wilayah Persekutuan',Clay,193.3,21.3,7893.9,5.7,1,Tomato
'Pulau Pinang',Clay,167.3,23.6,16067.9,8.3,1,Paddy
Kelantan,Sandy,115.4,23.4,9199.1,6.4,2,Chili
'Pulau Pinang',Loam,168.9,8.2,6896.8,5.4,1,Paddy
'Negeri Sembilan',Clay,129.5,26.8,15891.4,5.1,1,Durian
'Wilayah Persekutuan',Loam,161.0,17.5,7737.9,3.9,1,Tomato
'Wilayah Persekutuan',Loam,105.5,9.6,3576.9,4.0,1,Lettuce
Pahang,Sandy,131.4,23.1,11590.3,4.4,2,Chili
Sabah,Loam,165.7,11.1,14737.3,8.0,2,Tomato
Johor,Clay,166.6,25.7,10665.1,9.1,2,Corn
Johor,Loam,167.7,22.4,10539.6,4.0,2,Papaya
'Wilayah Persekutuan',Loam,83.7,15.0,8132.7,2.9,1,Lettuce
Pahang,Loam,165.2,32.0,17081.5,10.4,2,Chili
Melaka,Sandy,102.0,10.5,4180.5,4.8,1,Tomato
Kelantan,Loam,201.7,22.2,8646.0,6.0,2,Tomato
Johor,Clay,115.2,20.3,21340.6,6.0,2,Durian
Pahang,Loam,158.2,21.9,12624.5,3.0,2,Papaya
Terengganu,Silty,183.2,18.5,11498.0,4.4,2,Tomato
Melaka,Loam,244.5,23.1,15720.6,8.6,1,Durian
Kelantan,Clay,125.0,30.4,20523.8,6.7,2,Paddy
Johor,Silty,121.9,13.8,7337.0,3.8,2,Lettuce
'Wilayah Persekutuan',Loam,112.4,13.0,4467.1,2.8,1,Lettuce
'Wilayah Persekutuan',Silty,79.0,9.1,7382.0,1.8,1,Lettuce
Sabah,Loam,109.2,14.6,21845.5,8.5,2,Lettuce
'Negeri Sembilan',Clay,148.3,28.2,18009.4,6.3,1,Durian
Kelantan,Loam,220.9,13.2,10493.2,8.1,2,Paddy
'Wilayah Persekutuan',Clay,176.4,15.5,8967.1,5.2,1,Tomato
Perlis,Clay,149.7,30.0,17185.1,8.3,0,Tomato
'Wilayah Persekutuan',Sandy,133.1,22.3,9385.6,6.5,1,Papaya
Kedah,Loam,333.1,23.0,7539.7,11.5,1,Paddy
Melaka,Clay,185.1,24.4,10746.2,5.4,1,Tomato
Pahang,Loam,114.6,14.3,5378.8,2.8,2,Lettuce
Terengganu,Loam,258.9,27.1,14071.9,6.5,2,Paddy
Kelantan,Sandy,112.9,16.5,7071.0,5.3,2,Chili
Johor,Loam,168.3,31.0,20695.6,4.7,2,Durian
Perak,Loam,126.4,8.8,12318.6,6.9,2,Tomato
'Wilayah Persekutuan',Loam,111.7,13.4,7489.6,2.1,1,Lettuce
'Wilayah Persekutuan',Loam,169.2,21.9,13692.2,5.5,1,Chili
Sarawak,Clay,167.9,16.0,9939.2,10.1,2,Corn
Selangor,Loam,229.4,22.8,15328.9,9.3,1,Paddy
Kedah,Clay,146.9,25.8,13397.6,9.0,1,Chili
Kedah,Sandy,175.0,17.1,11013.7,4.2,1,Papaya
Sarawak,Loam,78.1,12.6,4920.9,3.3,2,Paddy
Kelantan,Silty,77.4,6.8,6111.5,2.6,2,Lettuce
Pahang,Clay,202.2,15.0,11914.8,5.0,2,Tomato
'Negeri Sembilan',Loam,147.0,10.8,9442.2,6.3,1,Papaya
Sabah,Loam,172.4,12.0,5355.4,6.0,2,Papaya
Kelantan,Sandy,113.8,20.2,6801.0,4.4,2,Chili
Kedah,Loam,174.7,13.4,6036.5,7.3,1,Paddy
Melaka,Loam,155.9,29.7,9166.7,11.7,1,Corn
'Wilayah Persekutuan',Clay,129.4,16.2,19106.6,7.8,1,Durian
'Negeri Sembilan',Sandy,119.7,5.9,9941.7,3.8,1,Papaya
Kedah,Loam,332.3,19.6,14221.2,7.2,1,Paddy
Kedah,Silty,154.8,13.9,10873.6,7.5,1,Tomato
'Pulau Pinang',Loam,184.7,19.1,9719.7,4.1,1,Paddy
Perak,Sandy,197.2,11.6,7704.3,6.2,2,Corn
Pahang,Silty,71.8,12.9,6420.3,2.1,2,Lettuce
Johor,Sandy,188.0,19.3,5472.6,2.6,2,Chili
Johor,Clay,174.0,23.1,7852.8,5.3,2,Tomato
Melaka,Sandy,110.9,13.0,7496.0,3.2,1,Chili
Melaka,Sandy,99.1,15.5,4953.0,2.5,1,Chili
Pahang,Clay,333.3,18.0,8864.9,9.7,2,Tomato
Selangor,Clay,338.9,24.7,11042.2,7.4,1,Paddy
Selangor,Loam,206.8,11.2,13539.8,4.1,1,Paddy
Melaka,Clay,211.1,12.4,11033.7,5.0,1,Corn
Perlis,Silty,186.1,20.2,14823.2,7.2,0,Paddy
Johor,Loam,177.2,12.1,7608.4,4.7,2,Papaya
Melaka,Loam,124.1,16.0,11950.3,3.4,1,Papaya
Selangor,Loam,193.8,17.0,9608.5,6.2,1,Corn
Pahang,Loam,137.5,22.2,17977.2,9.9,2,Chili
Melaka,Clay,202.1,22.9,9427.0,4.1,1,Tomato
Selangor,Loam,80.5,11.1,3469.0,4.0,1,Durian
Melaka,Loam,114.2,9.2,5676.6,2.0,1,Lettuce
Kedah,Loam,284.9,28.2,9753.1,11.5,1,Paddy
Kelantan,Silty,93.2,5.9,4571.8,2.6,2,Papaya
'Wilayah Persekutuan',Loam,222.2,27.4,7806.5,5.3,1,Corn
Pahang,Clay,139.5,20.4,17849.9,7.5,2,Tomato
Johor,Silty,123.6,8.0,4988.7,2.2,2,Lettuce
Pahang,Clay,151.3,16.5,20898.9,6.7,2,Tomato
Johor,Clay,178.6,16.0,7571.2,8.8,2,Corn
Kelantan,Loam,170.9,14.7,6036.6,2.6,2,Lettuce
Melaka,Loam,124.6,11.5,9967.2,1.7,1,Lettuce
Johor,Loam,86.0,15.7,6623.8,3.5,2,Lettuce
Melaka,Silty,104.0,10.1,9052.1,3.9,1,Lettuce
Sarawak,Silty,203.0,13.2,10642.7,6.7,2,Paddy
Sabah,Loam,133.7,18.2,15348.5,8.2,2,Papaya
Sarawak,Loam,315.2,22.5,8868.2,4.7,2,Tomato
Johor,Loam,176.1,18.6,11144.5,10.4,2,Corn
Perak,Loam,154.6,17.8,8202.3,9.2,2,Corn
Melaka,Loam,162.6,26.9,8967.4,9.7,1,Corn
Selangor,Sandy,110.4,8.8,9836.2,3.3,1,Papaya
Sarawak,Loam,171.6,27.9,8988.5,6.7,2,Corn
Pahang,Loam,173.4,12.7,6599.4,2.5,2,Papaya
Sabah,Clay,112.2,29.6,16009.4,10.1,2,Durian
Terengganu,Sandy,102.8,20.2,9437.5,7.4,2,Papaya
Perlis,Sandy,102.8,11.6,8433.0,4.9,0,Paddy
'Pulau Pinang',Clay,244.1,13.1,12548.3,11.1,1,Paddy
'Negeri Sembilan',Sandy,174.5,20.5,11739.2,4.1,1,Papaya
Johor,Loam,196.0,17.8,12587.3,7.7,2,Corn
Perak,Loam,181.6,28.0,11916.2,10.7,2,Corn
Pahang,Clay,142.0,20.9,12482.4,3.6,2,Tomato
Melaka,Loam,190.7,20.7,10933.4,8.4,1,Corn
'Pulau Pinang',Sandy,138.1,12.6,10685.4,3.2,1,Lettuce
'Negeri Sembilan',Clay,141.3,31.8,19742.1,5.4,1,Durian
Perlis,Silty,143.9,26.8,13710.5,6.2,0,Paddy
'Wilayah Persekutuan',Loam,167.1,17.6,17239.7,4.6,1,Durian
Selangor,Clay,209.5,20.9,7694.3,9.4,1,Corn
Melaka,Silty,75.6,6.6,3365.4,4.0,1,Lettuce
'Pulau Pinang',Loam,71.2,6.3,9071.6,4.9,1,Paddy
'Negeri Sembilan',Loam,171.0,15.1,6505.3,5.3,1,Papaya
Selangor,Loam,205.4,26.4,13925.8,10.2,1,Corn
Kedah,Sandy,177.6,14.1,13176.5,4.0,1,Paddy
'Negeri Sembilan',Clay,154.3,22.0,16870.2,6.8,1,Durian
Kelantan,Silty,172.1,12.6,12065.4,3.7,2,Paddy
Sarawak,Silty,216.5,11.8,11250.3,5.4,2,Paddy
Johor,Sandy,133.9,20.0,10152.0,4.0,2,Chili
Melaka,Loam,87.1,5.7,8381.1,3.8,1,Durian
Johor,Silty,88.7,11.5,4249.8,1.6,2,Lettuce
Selangor,Loam,183.3,26.8,8422.8,6.3,1,Corn
'Pulau Pinang',Clay,272.7,12.6,12034.7,10.6,1,Paddy
Melaka,Loam,108.5,13.1,5082.1,3.3,1,Lettuce
'Wilayah Persekutuan',Silty,112.0,11.9,8981.0,2.4,1,Lettuce
Terengganu,Silty,124.1,10.9,9815.1,1.8,2,Lettuce
Terengganu,Clay,141.5,33.1,11720.5,6.5,2,Corn
Kedah,Loam,181.3,13.4,8930.8,5.7,1,Paddy
Melaka,Clay,194.7,18.7,11320.2,5.3,1,Tomato
Melaka,Clay,193.5,29.8,9015.0,10.2,1,Corn
'Pulau Pinang',Clay,304.6,23.2,15404.4,9.6,1,Paddy
Johor,Silty,75.9,8.4,5385.6,1.7,2,Lettuce
'Wilayah Persekutuan',Loam,78.9,9.6,3815.2,4.7,1,Papaya
Selangor,Clay,158.6,19.9,19030.2,9.3,1,Tomato
Melaka,Sandy,151.0,13.0,6406.6,5.5,1,Chili
'Wilayah Persekutuan',Loam,243.8,24.1,10364.3,12.0,1,Durian
Pahang,Loam,321.1,21.1,11501.2,4.8,2,Chili
'Pulau Pinang',Loam,83.3,11.3,3379.0,4.3,1,Paddy
Johor,Loam,95.3,11.8,8161.0,2.4,2,Lettuce
Pahang,Loam,169.4,14.6,7823.2,6.7,2,Lettuce
'Wilayah Persekutuan',Clay,193.8,14.2,12713.0,5.5,1,Tomato
'Wilayah Persekutuan',Silty,77.1,10.2,8202.0,2.7,1,Lettuce
Terengganu,Loam,333.2,14.9,9256.4,6.8,2,Paddy
Johor,Loam,142.6,16.7,11350.6,5.7,2,Tomato
Kelantan,Silty,124.5,8.3,7826.8,4.4,2,Lettuce
Johor,Sandy,172.6,10.0,11093.8,4.1,2,Chili
Melaka,Sandy,150.5,19.0,6599.1,3.3,1,Papaya
'Wilayah Persekutuan',Sandy,153.3,13.4,10576.4,3.9,1,Papaya
Melaka,Clay,165.3,22.6,12302.8,4.2,1,Tomato
Selangor,Loam,158.6,23.1,9505.3,11.5,1,Corn
Pahang,Loam,202.5,23.4,9671.1,3.9,2,Tomato
Pahang,Loam,154.6,26.3,12709.5,5.6,2,Tomato
Perlis,Clay,127.5,32.7,17485.6,10.1,0,Durian
'Negeri Sembilan',Sandy,186.9,13.3,13613.2,2.6,1,Lettuce
'Negeri Sembilan',Clay,192.7,10.3,11257.7,5.8,1,Durian
Kelantan,Loam,161.5,22.5,5171.0,3.6,2,Lettuce
Kedah,Clay,131.8,28.1,19174.5,10.6,1,Durian
Melaka,Clay,189.0,16.6,10920.5,11.6,1,Corn
Terengganu,Sandy,114.0,5.2,4816.8,3.5,2,Durian
Selangor,Loam,155.8,28.4,21654.3,7.6,1,Durian
'Negeri Sembilan',Loam,134.6,10.2,12733.0,4.5,1,Papaya
Terengganu,Loam,221.5,18.2,15144.1,7.3,2,Tomato
Melaka,Sandy,177.0,15.6,5075.2,3.0,1,Chili
Melaka,Clay,166.8,23.7,10731.8,7.1,1,Corn
Johor,Sandy,85.9,5.5,6216.0,1.9,2,Tomato
'Negeri Sembilan',Silty,174.3,21.1,13278.8,8.0,1,Papaya
Kelantan,Silty,75.9,6.1,7993.1,3.3,2,Lettuce
Sabah,Loam,104.6,33.5,21841.9,10.1,2,Paddy
'Wilayah Persekutuan',Sandy,129.4,20.5,8393.3,2.8,1,Chili
Kelantan,Silty,94.9,10.6,5996.7,3.4,2,Lettuce
'Wilayah Persekutuan',Clay,164.2,17.1,9967.2,8.8,1,Lettuce
Sabah,Silty,194.9,17.5,11583.2,5.8,2,Lettuce
'Wilayah Persekutuan',Loam,102.3,11.0,7793.9,2.3,1,Lettuce
Kedah,Loam,231.6,16.0,6289.5,6.6,1,Paddy
Kelantan,Silty,114.0,11.9,8400.5,4.1,2,Paddy
Sabah,Loam,154.9,23.0,15131.9,8.9,2,Durian
Kedah,Sandy,144.7,15.7,7992.0,6.3,1,Paddy
Kelantan,Loam,288.1,17.0,11779.2,5.7,2,Papaya
Selangor,Clay,157.4,21.8,8667.2,9.8,1,Corn
Perlis,Clay,319.8,16.6,13674.2,8.8,0,Paddy
'Wilayah Persekutuan',Loam,118.3,22.8,13474.9,10.2,1,Durian
Melaka,Loam,201.2,29.3,11826.9,5.5,1,Corn
Melaka,Loam,107.1,14.7,17575.6,9.1,1,Papaya
Sarawak,Loam,155.2,15.2,8197.8,3.4,2,Corn
Selangor,Loam,139.4,14.7,14486.4,6.7,1,Lettuce
Johor,Loam,129.9,28.2,15354.7,6.4,2,Durian
'Wilayah Persekutuan',Loam,164.3,11.7,13424.9,6.7,1,Papaya
Sarawak,Loam,177.0,11.8,8961.7,5.7,2,Paddy
Kelantan,Loam,188.6,18.4,7195.6,4.0,2,Tomato
'Wilayah Persekutuan',Loam,142.0,23.2,10555.0,4.2,1,Tomato
'Wilayah Persekutuan',Silty,101.4,8.3,3334.1,1.8,1,Lettuce
Selangor,Silty,203.6,24.2,7647.7,8.3,1,Paddy
Melaka,Clay,145.9,20.9,8220.7,6.4,1,Tomato
'Pulau Pinang',Clay,260.6,22.7,14043.7,10.6,1,Durian
'Wilayah Persekutuan',Loam,120.9,31.0,16816.3,8.2,1,Durian
Perlis,Sandy,150.2,10.2,6490.5,2.9,0,Papaya
Sabah,Silty,106.4,5.8,9511.5,2.2,2,Chili
Kelantan,Clay,296.1,27.5,12180.3,8.8,2,Paddy
Melaka,Sandy,98.7,7.2,6770.0,4.8,1,Paddy
Melaka,Loam,159.0,28.2,15876.3,6.3,1,Durian
Perak,Clay,177.5,16.6,8531.7,10.0,2,Corn
Kelantan,Sandy,105.7,21.3,5690.6,6.8,2,Corn
Johor,Loam,189.6,17.5,11669.4,6.4,2,Corn
Melaka,Clay,185.2,24.1,11243.3,5.2,1,Tomato
Pahang,Sandy,162.8,19.0,6829.3,4.3,2,Chili
Sarawak,Loam,106.6,11.3,11246.5,4.7,2,Durian
Perlis,Loam,147.8,20.7,21075.3,10.6,0,Paddy
Perak,Sandy,120.5,19.0,5083.7,4.6,2,Paddy
Kedah,Loam,161.9,27.5,11426.9,7.3,1,Paddy
'Wilayah Persekutuan',Sandy,133.2,18.7,9612.1,4.4,1,Chili
Kedah,Loam,170.0,28.1,13964.6,4.8,1,Paddy
Kelantan,Clay,204.5,13.7,12113.9,3.8,2,Tomato
Terengganu,Loam,128.9,20.9,13733.2,4.6,2,Durian
Sarawak,Sandy,159.2,15.4,9995.8,6.6,2,Paddy
'Negeri Sembilan',Sandy,143.8,19.1,7870.2,4.0,1,Chili
'Wilayah Persekutuan',Loam,114.8,9.2,6019.2,2.2,1,Durian
Kelantan,Loam,144.6,13.8,7390.3,4.3,2,Tomato
Melaka,Clay,167.1,23.7,11871.2,6.5,1,Tomato
Pahang,Loam,114.2,18.1,10650.3,4.4,2,Chili
Selangor,Silty,116.7,8.6,3686.4,4.1,1,Papaya
Perak,Clay,175.1,28.9,11279.0,5.6,2,Corn
Selangor,Loam,234.6,10.4,14019.9,10.7,1,Paddy
Sarawak,Loam,152.0,17.9,11164.7,10.0,2,Corn
Selangor,Clay,173.7,18.8,10712.6,6.7,1,Corn
'Negeri Sembilan',Silty,212.9,21.3,10417.6,6.2,1,Corn
Perak,Silty,123.3,6.8,3525.0,4.8,2,Paddy
Johor,Loam,238.4,26.1,12959.1,7.7,2,Corn
Melaka,Loam,137.6,28.2,12236.9,9.8,1,Durian
Kedah,Silty,128.7,12.2,4921.4,3.5,1,Papaya
Sarawak,Loam,156.6,15.7,7658.6,6.5,2,Corn
Terengganu,Silty,171.2,23.5,8887.5,5.8,2,Corn
Pahang,Silty,205.2,12.4,13000.8,5.8,2,Lettuce
Johor,Sandy,169.1,17.0,11933.3,5.4,2,Chili
Perak,Clay,179.7,16.7,14773.0,7.7,2,Corn
Kedah,Silty,128.2,9.4,6602.2,5.0,1,Papaya
Selangor,Loam,122.4,32.9,16539.2,7.2,1,Durian
Johor,Clay,187.9,17.5,9686.2,11.8,2,Corn
Selangor,Clay,210.4,29.1,14179.8,7.9,1,Tomato
Johor,Sandy,158.5,15.2,5471.3,3.4,2,Chili
Melaka,Loam,115.2,13.6,3083.2,3.5,1,Lettuce
Melaka,Loam,190.7,29.8,8607.0,11.7,1,Corn
Pahang,Silty,212.2,13.2,13434.7,8.9,2,Tomato
Kelantan,Silty,83.1,13.3,9668.1,2.5,2,Lettuce
'Wilayah Persekutuan',Sandy,102.3,11.7,8714.4,6.3,1,Chili
Sabah,Sandy,158.1,16.9,10521.6,3.8,2,Papaya
Melaka,Loam,114.4,11.9,7384.1,2.5,1,Lettuce
'Negeri Sembilan',Loam,320.1,11.8,13245.8,5.5,1,Papaya
Sarawak,Clay,170.1,15.8,12517.1,9.9,2,Corn
Pahang,Clay,157.8,28.6,11443.6,9.9,2,Durian
Melaka,Loam,79.8,13.1,6678.3,2.9,1,Lettuce
Perak,Clay,157.5,15.8,11612.8,5.9,2,Corn
Johor,Silty,108.8,16.0,9988.8,3.8,2,Lettuce
Pahang,Clay,201.3,28.0,14791.8,4.1,2,Papaya
Pahang,Sandy,105.8,16.9,11675.6,2.7,2,Chili
'Wilayah Persekutuan',Clay,149.9,31.6,19026.6,5.6,1,Durian
'Pulau Pinang',Loam,119.6,20.8,11646.9,4.9,1,Paddy
Perlis,Loam,107.3,19.3,9728.6,7.3,0,Papaya
Melaka,Sandy,138.5,11.2,11345.2,3.7,1,Chili
Kelantan,Sandy,136.4,22.7,8486.7,6.4,2,Lettuce
Pahang,Silty,98.0,13.5,7515.5,3.0,2,Lettuce
Johor,Clay,164.3,18.4,11882.5,6.1,2,Corn
Pahang,Loam,192.5,19.0,7112.0,5.5,2,Tomato
Sarawak,Clay,164.7,25.8,14631.5,10.9,2,Corn
Perak,Clay,203.5,27.6,7931.2,5.5,2,Corn
Sabah,Loam,141.0,28.4,12456.8,6.9,2,Durian
Sarawak,Clay,228.7,27.7,12579.3,11.8,2,Paddy
'Negeri Sembilan',Clay,128.1,20.4,21964.4,7.9,1,Durian
Kelantan,Clay,181.9,17.1,9482.2,5.4,2,Papaya
Melaka,Loam,77.3,12.4,5657.9,4.9,1,Chili
Pahang,Loam,121.5,9.1,4681.0,3.9,2,Lettuce
Kelantan,Clay,201.5,15.0,10028.9,5.9,2,Tomato
Perak,Loam,324.0,15.1,11347.3,4.4,2,Paddy
Terengganu,Loam,177.5,26.4,7346.3,5.2,2,Tomato
Melaka,Loam,150.1,13.8,11266.9,3.9,1,Tomato
'Wilayah Persekutuan',Sandy,122.0,12.5,6742.8,3.6,1,Chili
Selangor,Clay,279.5,19.4,13524.8,5.8,1,Paddy
'Pulau Pinang',Loam,121.1,19.2,8350.8,6.8,1,Chili
Johor,Loam,150.2,30.6,21224.9,9.6,2,Durian
Johor,Clay,163.0,18.9,14498.3,9.7,2,Corn
Pahang,Loam,127.7,20.4,18693.9,6.0,2,Tomato
'Wilayah Persekutuan',Clay,155.0,19.2,8873.5,4.5,1,Tomato
Pahang,Loam,92.6,7.6,4451.6,1.6,2,Lettuce
Perak,Loam,179.4,24.7,11323.1,5.6,2,Corn
'Pulau Pinang',Clay,281.4,24.5,11591.1,8.7,1,Corn
Perak,Loam,123.7,14.4,6213.0,2.3,2,Papaya
Perlis,Clay,288.6,21.5,7070.9,11.5,0,Paddy
'Pulau Pinang',Loam,134.9,18.2,19089.7,10.2,1,Papaya
Sabah,Sandy,73.5,11.8,6703.1,4.1,2,Lettuce
Melaka,Clay,124.5,29.9,18825.6,8.7,1,Durian
Johor,Clay,106.4,15.0,12206.1,8.6,2,Durian
Perak,Loam,212.0,24.5,13418.9,6.8,2,Paddy
Melaka,Loam,160.9,14.0,12453.2,7.6,1,Corn
'Negeri Sembilan',Silty,192.6,13.2,13803.4,3.6,1,Papaya
'Wilayah Persekutuan',Clay,231.7,12.4,8053.9,6.9,1,Papaya
Johor,Sandy,161.0,13.3,8391.8,5.5,2,Chili
Pahang,Silty,129.3,9.6,3925.2,1.7,2,Paddy
Johor,Clay,153.4,23.4,10751.4,5.9,2,Tomato
'Wilayah Persekutuan',Silty,91.6,15.5,4677.9,4.1,1,Lettuce
'Wilayah Persekutuan',Sandy,121.9,12.4,11609.5,5.3,1,Chili
Terengganu,Loam,131.9,21.3,5579.8,3.5,2,Lettuce
Johor,Clay,153.8,27.4,11542.4,10.8,2,Corn
Selangor,Sandy,113.3,12.7,10828.8,3.0,1,Papaya
Johor,Clay,114.9,24.5,20731.5,8.7,2,Papaya
Perak,Clay,204.6,26.4,8597.5,10.7,2,Corn
Kelantan,Loam,207.4,15.8,8234.8,6.0,2,Tomato
'Wilayah Persekutuan',Loam,145.4,23.3,10347.8,2.5,1,Papaya
'Negeri Sembilan',Loam,196.6,14.9,5094.9,3.8,1,Papaya
'Negeri Sembilan',Sandy,93.3,9.3,3799.6,2.7,1,Lettuce
Johor,Loam,118.9,11.7,9548.5,2.6,2,Lettuce
Melaka,Loam,166.2,18.5,10132.7,8.2,1,Corn
Sarawak,Loam,146.1,21.8,12929.4,9.6,2,Durian
Pahang,Loam,101.3,10.5,9263.2,1.8,2,Lettuce
Johor,Clay,146.9,22.0,11970.6,3.7,2,Tomato
'Wilayah Persekutuan',Clay,195.1,13.9,9572.9,6.3,1,Tomato
'Wilayah Persekutuan',Sandy,121.3,11.1,10074.9,3.7,1,Chili
Johor,Clay,154.7,25.4,8970.7,6.2,2,Tomato
Johor,Clay,298.6,20.7,8668.3,9.1,2,Tomato
Johor,Clay,177.3,16.4,9351.2,4.5,2,Tomato
Perlis,Loam,87.6,15.5,7328.0,3.2,0,Durian
Perak,Loam,200.8,29.7,9897.3,7.9,2,Corn
Pahang,Clay,193.1,21.2,10848.8,6.2,2,Tomato
'Wilayah Persekutuan',Clay,267.1,18.3,13690.3,6.0,1,Papaya
Sarawak,Silty,163.0,21.0,9531.9,6.4,2,Lettuce
Kelantan,Loam,157.2,19.8,11711.3,4.4,2,Tomato
Perak,Clay,194.4,29.0,13084.6,6.3,2,Corn
Pahang,Clay,144.7,12.6,9887.1,4.4,2,Tomato
Kelantan,Silty,155.1,20.9,11010.9,8.8,2,Papaya
Sarawak,Clay,161.7,27.0,13432.0,6.7,2,Tomato
Johor,Clay,217.1,26.7,13042.1,7.3,2,Tomato
Pahang,Sandy,110.5,11.3,9981.3,4.0,2,Chili
Perak,Loam,174.1,18.4,8941.3,6.5,2,Corn
'Pulau Pinang',Silty,70.3,13.2,3049.8,3.3,1,Paddy
Terengganu,Clay,132.5,25.8,15797.5,8.7,2,Durian
Kelantan,Loam,218.8,20.5,11073.3,11.9,2,Paddy
Melaka,Sandy,117.6,22.8,5029.3,5.9,1,Chili
Perak,Loam,132.0,33.3,18751.0,6.3,2,Lettuce
Selangor,Clay,305.6,19.8,6190.6,11.3,1,Tomato
Perak,Clay,171.8,22.7,10672.9,11.6,2,Corn
Perak,Clay,150.8,17.0,13735.5,5.5,2,Corn
Sarawak,Loam,142.1,23.4,12184.0,3.9,2,Lettuce
Kelantan,Loam,104.4,30.3,16034.5,6.4,2,Chili
Perak,Loam,155.5,14.8,10554.7,7.5,2,Corn
