@relation grade_predict

@attribute location {Johor,Kedah,Kelantan,Melaka,'Negeri Sembilan',Pahang,Perak,Perlis,'Pulau Pinang',Sabah,Sarawak,Selangor,Terengganu,'Wilayah Persekutuan'}
@attribute soil {Clay,Loam,Sandy,Silty}
@attribute crop {Tomato,Lettuce,Chili,Corn,Paddy,Papaya,Durian}
@attribute water numeric
@attribute fertilizerStock numeric
@attribute budget numeric
@attribute expectedProfitBand {Low,Medium,High}
@attribute grade {S,A,B,C,D,F}

@data
Johor,Clay,Tomato,278.9,27.3,19088.7,Low,A
Johor,Clay,Tomato,94.6,12.6,14589.2,Low,C
Johor,Clay,Tomato,87.9,23.9,13681.6,Medium,B
Johor,Clay,Tomato,268.2,35.7,17819.9,Medium,S
Johor,Clay,Tomato,100.2,18.7,19648.4,High,S
Johor,Clay,Tomato,162.3,24.3,5580.0,High,A
Johor,Clay,Lettuce,207.6,22.8,21115.0,Low,A
Johor,Clay,Lettuce,224.4,29.4,17812.5,Low,A
Johor,Clay,Lettuce,112.2,40.5,11041.6,Medium,A
Johor,Clay,Lettuce,115.6,20.3,9541.7,Medium,C
Johor,Clay,Lettuce,302.7,12.9,3695.2,High,A
Johor,Clay,Lettuce,138.5,24.3,6603.6,High,B
Johor,Clay,Chili,203.7,16.5,11023.0,Low,C
Johor,Clay,Chili,160.3,23.4,7460.4,Low,C
Johor,Clay,Chili,182.5,13.4,3517.8,Medium,B
Johor,Clay,Chili,138.4,23.6,12933.0,Medium,B
Johor,Clay,Chili,132.9,11.8,4371.8,High,B
Johor,Clay,Chili,213.8,16.4,15502.1,High,A
Johor,Clay,Corn,273.6,35.0,18909.0,Low,A
Johor,Clay,Corn,231.2,7.9,19100.0,Low,B
Johor,Clay,Corn,212.9,13.2,17401.5,Medium,A
Johor,Clay,Corn,154.0,44.9,20916.3,Medium,S
Johor,Clay,Corn,277.3,2.5,15081.8,High,S
Johor,Clay,Corn,335.4,39.2,6551.6,High,S
Johor,Clay,Paddy,113.0,12.1,13740.1,Low,C
Johor,Clay,Paddy,190.6,37.0,8813.2,Low,B
Johor,Clay,Paddy,303.7,20.4,20838.6,Medium,S
Johor,Clay,Paddy,181.6,38.7,2602.1,Medium,B
Johor,Clay,Paddy,312.1,15.1,16756.1,High,S
Johor,Clay,Paddy,247.7,17.3,6509.8,High,A
Johor,Clay,Papaya,275.8,34.8,15810.4,Low,A
Johor,Clay,Papaya,226.1,26.4,2644.2,Low,C
Johor,Clay,Papaya,343.2,44.8,13363.8,Medium,S
Johor,Clay,Papaya,324.1,26.7,9817.7,Medium,A
Johor,Clay,Papaya,334.6,4.7,9728.7,High,A
Johor,Clay,Papaya,148.7,43.4,14780.1,High,S
Johor,Clay,Durian,101.4,31.0,5552.7,Low,B
Johor,Clay,Durian,231.0,3.2,5980.0,Low,C
Johor,Clay,Durian,165.8,10.9,7822.1,Medium,B
Johor,Clay,Durian,186.4,17.9,2220.9,Medium,C
Johor,Clay,Durian,322.9,18.8,21791.9,High,S
Johor,Clay,Durian,175.5,34.0,9779.9,High,S
Johor,Loam,Tomato,111.9,39.4,8195.1,Low,B
Johor,Loam,Tomato,249.4,8.8,13501.8,Low,C
Johor,Loam,Tomato,110.9,32.8,11179.1,Medium,B
Johor,Loam,Tomato,347.3,21.2,18491.7,Medium,S
Johor,Loam,Tomato,124.1,16.1,13384.6,High,A
Johor,Loam,Tomato,188.8,3.7,3822.1,High,B
Johor,Loam,Lettuce,325.7,16.9,18852.8,Low,A
Johor,Loam,Lettuce,167.3,37.4,18996.9,Low,A
Johor,Loam,Lettuce,103.9,28.6,10641.5,Medium,B
Johor,Loam,Lettuce,247.7,32.0,3910.7,Medium,A
Johor,Loam,Lettuce,63.1,40.1,5158.6,High,S
Johor,Loam,Lettuce,211.3,30.7,3334.9,High,S
Johor,Loam,Chili,320.7,41.1,10225.6,Low,S
Johor,Loam,Chili,86.4,17.9,17107.9,Low,B
Johor,Loam,Chili,283.9,19.6,5296.8,Medium,B
Johor,Loam,Chili,63.4,3.1,14777.3,Medium,B
Johor,Loam,Chili,188.6,16.8,9986.8,High,A
Johor,Loam,Chili,61.3,12.8,16182.0,High,B
Johor,Loam,Corn,251.1,22.0,11227.1,Low,B
Johor,Loam,Corn,247.1,32.7,10754.5,Low,A
Johor,Loam,Corn,133.7,8.9,18769.9,Medium,A
Johor,Loam,Corn,103.2,7.3,16828.9,Medium,B
Johor,Loam,Corn,251.4,2.5,7465.0,High,B
Johor,Loam,Corn,103.4,32.7,19853.8,High,S
Johor,Loam,Paddy,182.6,4.1,14695.8,Low,C
Johor,Loam,Paddy,248.8,30.4,4055.9,Low,B
Johor,Loam,Paddy,183.2,27.7,2973.3,Medium,B
Johor,Loam,Paddy,110.5,12.7,20175.1,Medium,B
Johor,Loam,Paddy,54.8,3.2,2291.2,High,B
Johor,Loam,Paddy,254.0,4.7,21174.9,High,A
Johor,Loam,Papaya,300.6,30.6,16480.2,Low,A
Johor,Loam,Papaya,203.8,37.1,8453.6,Low,A
Johor,Loam,Papaya,237.4,42.2,9901.3,Medium,S
Johor,Loam,Papaya,119.7,6.6,8467.4,Medium,C
Johor,Loam,Papaya,246.2,2.5,6255.4,High,B
Johor,Loam,Papaya,247.4,14.0,14478.2,High,A
Johor,Loam,Durian,315.6,19.7,17350.9,Low,A
Johor,Loam,Durian,347.1,32.6,17825.2,Low,S
Johor,Loam,Durian,220.8,12.8,3894.9,Medium,C
Johor,Loam,Durian,239.3,18.7,20491.1,Medium,S
Johor,Loam,Durian,89.9,9.5,17234.3,High,A
Johor,Loam,Durian,343.4,30.7,3350.3,High,A
Johor,Sandy,Tomato,323.6,21.3,12220.5,Low,A
Johor,Sandy,Tomato,201.0,32.3,2265.8,Low,C
Johor,Sandy,Tomato,277.7,7.3,6727.9,Medium,B
Johor,Sandy,Tomato,123.1,5.4,4751.1,Medium,C
Johor,Sandy,Tomato,110.6,18.2,14840.8,High,A
Johor,Sandy,Tomato,267.6,44.5,10874.5,High,S
Johor,Sandy,Lettuce,90.3,15.7,17739.4,Low,C
Johor,Sandy,Lettuce,287.5,19.8,18254.2,Low,A
Johor,Sandy,Lettuce,118.7,33.5,8854.6,Medium,B
Johor,Sandy,Lettuce,66.2,41.5,21767.5,Medium,S
Johor,Sandy,Lettuce,258.9,11.6,19454.1,High,S
Johor,Sandy,Lettuce,105.1,29.1,3292.3,High,B
Johor,Sandy,Chili,336.1,4.2,21840.3,Low,A
Johor,Sandy,Chili,87.7,9.5,12976.9,Low,C
Johor,Sandy,Chili,111.3,23.8,10524.8,Medium,B
Johor,Sandy,Chili,99.2,10.5,10480.3,Medium,B
Johor,Sandy,Chili,140.9,26.8,21354.5,High,S
Johor,Sandy,Chili,308.7,22.7,21020.3,High,S
Johor,Sandy,Corn,163.3,22.2,10453.9,Low,B
Johor,Sandy,Corn,180.0,8.7,21075.2,Low,B
Johor,Sandy,Corn,278.6,20.4,3664.7,Medium,A
Johor,Sandy,Corn,140.1,25.1,13057.0,Medium,B
Johor,Sandy,Corn,164.1,15.2,7664.5,High,A
Johor,Sandy,Corn,194.3,16.3,16297.3,High,A
Johor,Sandy,Paddy,324.8,2.2,19233.1,Low,B
Johor,Sandy,Paddy,162.3,19.4,10316.4,Low,C
Johor,Sandy,Paddy,272.7,18.5,8156.2,Medium,A
Johor,Sandy,Paddy,71.4,40.1,21849.4,Medium,A
Johor,Sandy,Paddy,329.6,9.0,17259.0,High,S
Johor,Sandy,Paddy,281.4,34.3,8971.6,High,S
Johor,Sandy,Papaya,240.5,17.8,3154.1,Low,C
Johor,Sandy,Papaya,177.2,12.6,11554.5,Low,B
Johor,Sandy,Papaya,158.4,32.4,2565.1,Medium,B
Johor,Sandy,Papaya,94.4,28.0,20885.3,Medium,A
Johor,Sandy,Papaya,124.2,26.9,15252.1,High,A
Johor,Sandy,Papaya,85.0,6.0,16232.2,High,B
Johor,Sandy,Durian,261.8,43.9,3607.0,Low,A
Johor,Sandy,Durian,312.8,9.1,10537.4,Low,B
Johor,Sandy,Durian,200.2,24.9,19733.0,Medium,S
Johor,Sandy,Durian,270.2,34.4,20486.4,Medium,S
Johor,Sandy,Durian,82.8,26.6,17950.7,High,S
Johor,Sandy,Durian,130.7,11.0,16965.8,High,A
Johor,Silty,Tomato,51.9,9.2,11834.5,Low,D
Johor,Silty,Tomato,282.1,20.0,10336.8,Low,B
Johor,Silty,Tomato,179.3,9.6,5728.0,Medium,C
Johor,Silty,Tomato,195.9,23.6,4204.8,Medium,B
Johor,Silty,Tomato,113.8,10.6,16998.3,High,S
Johor,Silty,Tomato,107.6,44.3,19432.3,High,S
Johor,Silty,Lettuce,323.9,6.7,14728.7,Low,C
Johor,Silty,Lettuce,75.7,7.4,3285.2,Low,F
Johor,Silty,Lettuce,120.4,22.9,17210.7,Medium,B
Johor,Silty,Lettuce,129.8,43.1,15306.4,Medium,S
Johor,Silty,Lettuce,62.6,11.1,17835.7,High,A
Johor,Silty,Lettuce,206.0,43.4,7316.7,High,S
Johor,Silty,Chili,277.1,28.0,8731.0,Low,B
Johor,Silty,Chili,152.9,15.6,6791.9,Low,C
Johor,Silty,Chili,169.5,28.3,21506.1,Medium,S
Johor,Silty,Chili,291.9,2.1,19410.8,Medium,A
Johor,Silty,Chili,300.6,41.8,2513.6,High,S
Johor,Silty,Chili,209.2,42.9,17028.8,High,S
Johor,Silty,Corn,185.6,31.5,19397.1,Low,A
Johor,Silty,Corn,248.1,2.1,14761.5,Low,B
Johor,Silty,Corn,146.7,29.3,19468.7,Medium,S
Johor,Silty,Corn,270.7,31.2,6671.2,Medium,A
Johor,Silty,Corn,271.8,36.1,8966.7,High,S
Johor,Silty,Corn,332.4,22.5,15166.8,High,S
Johor,Silty,Paddy,80.1,18.5,14143.5,Low,B
Johor,Silty,Paddy,311.0,39.7,17697.2,Low,S
Johor,Silty,Paddy,59.5,23.4,3741.8,Medium,B
Johor,Silty,Paddy,348.9,44.5,11336.1,Medium,S
Johor,Silty,Paddy,336.5,22.7,12813.4,High,S
Johor,Silty,Paddy,101.1,42.6,15998.2,High,S
Johor,Silty,Papaya,348.0,3.3,20580.1,Low,B
Johor,Silty,Papaya,165.0,14.1,16383.5,Low,B
Johor,Silty,Papaya,335.5,30.8,15309.5,Medium,S
Johor,Silty,Papaya,240.1,23.2,17910.8,Medium,A
Johor,Silty,Papaya,117.1,26.8,20477.0,High,S
Johor,Silty,Papaya,153.0,41.1,16859.4,High,S
Johor,Silty,Durian,246.2,35.8,21325.0,Low,S
Johor,Silty,Durian,120.0,13.1,7819.5,Low,D
Johor,Silty,Durian,152.1,27.5,5763.1,Medium,A
Johor,Silty,Durian,221.9,7.5,8267.4,Medium,B
Johor,Silty,Durian,271.1,15.4,13801.2,High,A
Johor,Silty,Durian,166.4,20.2,17425.6,High,S
Kedah,Clay,Tomato,330.2,7.4,15274.9,Low,B
Kedah,Clay,Tomato,82.0,2.4,19047.2,Low,C
Kedah,Clay,Tomato,294.8,14.8,6378.1,Medium,B
Kedah,Clay,Tomato,94.2,14.2,16941.2,Medium,A
Kedah,Clay,Tomato,298.3,3.5,8402.8,High,A
Kedah,Clay,Tomato,256.6,13.8,18953.4,High,S
Kedah,Clay,Lettuce,239.3,11.3,7829.9,Low,B
Kedah,Clay,Lettuce,67.6,36.8,5054.0,Low,C
Kedah,Clay,Lettuce,304.4,42.2,6501.4,Medium,S
Kedah,Clay,Lettuce,326.9,35.4,19135.6,Medium,S
Kedah,Clay,Lettuce,139.7,37.0,20247.5,High,S
Kedah,Clay,Lettuce,56.5,18.9,10448.7,High,B
Kedah,Clay,Chili,154.5,18.8,3436.5,Low,C
Kedah,Clay,Chili,134.7,41.7,16022.2,Low,A
Kedah,Clay,Chili,79.2,15.9,17825.5,Medium,A
Kedah,Clay,Chili,66.2,42.2,8081.5,Medium,A
Kedah,Clay,Chili,223.1,21.0,11648.8,High,S
Kedah,Clay,Chili,112.9,36.6,5913.1,High,A
Kedah,Clay,Corn,158.7,38.8,4039.0,Low,B
Kedah,Clay,Corn,307.5,18.2,21654.0,Low,A
Kedah,Clay,Corn,100.5,4.4,9111.7,Medium,C
Kedah,Clay,Corn,333.5,7.0,12308.7,Medium,B
Kedah,Clay,Corn,180.1,8.4,16451.0,High,A
Kedah,Clay,Corn,85.6,19.1,8053.8,High,B
Kedah,Clay,Paddy,101.7,34.0,17517.0,Low,A
Kedah,Clay,Paddy,251.2,5.9,11273.5,Low,C
Kedah,Clay,Paddy,164.6,29.2,10902.4,Medium,B
Kedah,Clay,Paddy,85.0,7.2,14828.2,Medium,B
Kedah,Clay,Paddy,117.5,27.2,21747.0,High,S
Kedah,Clay,Paddy,258.1,6.1,13857.6,High,A
Kedah,Clay,Papaya,350.0,32.2,7967.3,Low,B
Kedah,Clay,Papaya,147.6,32.7,19244.2,Low,A
Kedah,Clay,Papaya,171.6,32.1,9875.9,Medium,A
Kedah,Clay,Papaya,285.0,24.8,3278.6,Medium,A
Kedah,Clay,Papaya,211.7,37.2,15034.0,High,S
Kedah,Clay,Papaya,112.2,30.3,4346.5,High,A
Kedah,Clay,Durian,258.6,2.2,10944.7,Low,C
Kedah,Clay,Durian,61.7,26.7,15052.8,Low,C
Kedah,Clay,Durian,127.0,34.4,3692.2,Medium,C
Kedah,Clay,Durian,139.6,43.5,5432.1,Medium,A
Kedah,Clay,Durian,247.4,12.7,2923.3,High,A
Kedah,Clay,Durian,321.4,14.6,12682.0,High,A
Kedah,Loam,Tomato,197.1,15.5,20215.7,Low,A
Kedah,Loam,Tomato,231.9,24.0,15758.6,Low,A
Kedah,Loam,Tomato,63.4,3.6,4833.3,Medium,C
Kedah,Loam,Tomato,114.6,7.8,13041.4,Medium,B
Kedah,Loam,Tomato,133.2,33.4,10440.3,High,S
Kedah,Loam,Tomato,128.2,29.9,5266.4,High,A
Kedah,Loam,Lettuce,333.4,31.1,20804.0,Low,A
Kedah,Loam,Lettuce,111.1,29.1,7388.0,Low,C
Kedah,Loam,Lettuce,243.7,32.7,13272.8,Medium,S
Kedah,Loam,Lettuce,203.4,9.1,18431.4,Medium,B
Kedah,Loam,Lettuce,286.3,18.3,21280.4,High,S
Kedah,Loam,Lettuce,131.0,24.9,15679.6,High,A
Kedah,Loam,Chili,148.8,5.8,20184.9,Low,B
Kedah,Loam,Chili,93.9,36.3,7472.9,Low,C
Kedah,Loam,Chili,343.8,11.6,21035.7,Medium,S
Kedah,Loam,Chili,87.1,24.6,19510.2,Medium,A
Kedah,Loam,Chili,292.0,6.1,8978.0,High,A
Kedah,Loam,Chili,134.6,13.7,3981.3,High,C
Kedah,Loam,Corn,145.4,34.3,5613.4,Low,B
Kedah,Loam,Corn,253.3,35.9,13033.4,Low,A
Kedah,Loam,Corn,170.8,27.5,7181.2,Medium,B
Kedah,Loam,Corn,264.0,30.3,4853.4,Medium,A
Kedah,Loam,Corn,130.2,41.5,14783.9,High,S
Kedah,Loam,Corn,283.3,31.2,10364.9,High,S
Kedah,Loam,Paddy,181.7,17.2,11373.3,Low,C
Kedah,Loam,Paddy,335.8,24.4,16369.3,Low,A
Kedah,Loam,Paddy,118.6,29.3,3738.8,Medium,C
Kedah,Loam,Paddy,281.2,38.3,14693.5,Medium,A
Kedah,Loam,Paddy,122.0,6.0,13506.3,High,B
Kedah,Loam,Paddy,135.8,42.0,18166.9,High,S
Kedah,Loam,Papaya,334.5,31.1,20648.8,Low,A
Kedah,Loam,Papaya,199.3,31.5,15535.5,Low,A
Kedah,Loam,Papaya,87.4,2.6,5803.7,Medium,C
Kedah,Loam,Papaya,52.2,20.3,12686.5,Medium,B
Kedah,Loam,Papaya,348.3,30.4,20409.2,High,S
Kedah,Loam,Papaya,333.5,31.4,2847.1,High,S
Kedah,Loam,Durian,100.6,42.0,17274.2,Low,A
Kedah,Loam,Durian,102.4,17.8,4666.4,Low,D
Kedah,Loam,Durian,65.3,23.3,5409.7,Medium,B
Kedah,Loam,Durian,151.4,31.2,18634.5,Medium,S
Kedah,Loam,Durian,307.3,14.5,11662.5,High,A
Kedah,Loam,Durian,50.7,29.1,9872.4,High,A
Kedah,Sandy,Tomato,328.7,43.2,12310.6,Low,S
Kedah,Sandy,Tomato,330.6,40.4,18967.0,Low,A
Kedah,Sandy,Tomato,51.8,21.8,7967.0,Medium,C
Kedah,Sandy,Tomato,154.9,33.1,10041.4,Medium,B
Kedah,Sandy,Tomato,179.2,10.5,12581.9,High,A
Kedah,Sandy,Tomato,173.2,41.3,2138.2,High,A
Kedah,Sandy,Lettuce,125.0,22.2,9486.2,Low,C
Kedah,Sandy,Lettuce,317.7,25.1,7389.6,Low,B
Kedah,Sandy,Lettuce,246.9,20.9,4797.5,Medium,B
Kedah,Sandy,Lettuce,51.7,40.0,16184.4,Medium,B
Kedah,Sandy,Lettuce,135.5,7.7,10421.1,High,B
Kedah,Sandy,Lettuce,59.5,30.6,20967.5,High,S
Kedah,Sandy,Chili,344.9,7.1,11781.4,Low,C
Kedah,Sandy,Chili,254.5,7.5,17021.8,Low,B
Kedah,Sandy,Chili,170.0,33.2,16837.9,Medium,S
Kedah,Sandy,Chili,89.4,43.2,17854.3,Medium,A
Kedah,Sandy,Chili,153.2,2.6,15688.8,High,B
Kedah,Sandy,Chili,299.0,20.5,13941.7,High,A
Kedah,Sandy,Corn,194.1,14.1,3652.3,Low,D
Kedah,Sandy,Corn,235.3,33.4,5737.2,Low,C
Kedah,Sandy,Corn,84.5,13.3,16019.1,Medium,B
Kedah,Sandy,Corn,178.7,22.4,17654.3,Medium,B
Kedah,Sandy,Corn,269.1,28.3,5773.4,High,S
Kedah,Sandy,Corn,238.7,8.4,4409.2,High,B
Kedah,Sandy,Paddy,132.2,10.3,4924.2,Low,F
Kedah,Sandy,Paddy,109.9,39.2,9607.1,Low,B
Kedah,Sandy,Paddy,260.0,44.1,6435.5,Medium,A
Kedah,Sandy,Paddy,68.4,20.4,3033.1,Medium,D
Kedah,Sandy,Paddy,159.1,42.5,16231.7,High,S
Kedah,Sandy,Paddy,318.5,9.8,2010.7,High,B
Kedah,Sandy,Papaya,146.5,14.3,7603.2,Low,C
Kedah,Sandy,Papaya,179.3,12.8,11825.7,Low,C
Kedah,Sandy,Papaya,83.5,30.8,15659.2,Medium,A
Kedah,Sandy,Papaya,89.1,17.5,18200.7,Medium,A
Kedah,Sandy,Papaya,226.7,28.0,6765.0,High,A
Kedah,Sandy,Papaya,225.3,5.8,4127.3,High,B
Kedah,Sandy,Durian,230.6,3.8,21366.6,Low,B
Kedah,Sandy,Durian,295.2,10.3,10915.4,Low,C
Kedah,Sandy,Durian,332.5,28.6,8029.5,Medium,A
Kedah,Sandy,Durian,278.3,24.9,5073.4,Medium,B
Kedah,Sandy,Durian,175.5,32.6,19831.7,High,S
Kedah,Sandy,Durian,303.8,26.1,8946.8,High,A
Kedah,Silty,Tomato,239.0,7.0,10722.5,Low,C
Kedah,Silty,Tomato,207.1,43.0,17817.7,Low,A
Kedah,Silty,Tomato,132.2,43.6,7793.1,Medium,A
Kedah,Silty,Tomato,68.2,43.8,5803.8,Medium,A
Kedah,Silty,Tomato,198.5,24.9,12269.8,High,A
Kedah,Silty,Tomato,181.3,23.9,13250.0,High,A
Kedah,Silty,Lettuce,232.2,10.9,2072.0,Low,D
Kedah,Silty,Lettuce,227.6,2.4,20572.5,Low,B
Kedah,Silty,Lettuce,201.1,33.0,7176.7,Medium,A
Kedah,Silty,Lettuce,138.9,13.5,4382.1,Medium,C
Kedah,Silty,Lettuce,210.1,14.5,14792.3,High,S
Kedah,Silty,Lettuce,133.3,7.7,19467.7,High,B
Kedah,Silty,Chili,344.0,44.6,6199.4,Low,B
Kedah,Silty,Chili,244.6,29.2,21444.4,Low,A
Kedah,Silty,Chili,333.9,40.0,7280.8,Medium,A
Kedah,Silty,Chili,319.5,14.7,21705.2,Medium,S
Kedah,Silty,Chili,53.1,17.3,16609.5,High,A
Kedah,Silty,Chili,126.8,2.7,15146.4,High,A
Kedah,Silty,Corn,331.7,27.1,16452.0,Low,A
Kedah,Silty,Corn,333.7,13.1,14524.6,Low,B
Kedah,Silty,Corn,111.8,21.0,8485.3,Medium,C
Kedah,Silty,Corn,238.9,38.9,9909.3,Medium,A
Kedah,Silty,Corn,268.9,20.7,4966.7,High,A
Kedah,Silty,Corn,198.8,21.8,18312.0,High,A
Kedah,Silty,Paddy,220.9,42.6,5608.1,Low,B
Kedah,Silty,Paddy,143.0,40.1,18350.0,Low,A
Kedah,Silty,Paddy,106.4,8.2,10527.9,Medium,C
Kedah,Silty,Paddy,243.5,19.3,16486.1,Medium,B
Kedah,Silty,Paddy,275.1,2.5,3994.6,High,B
Kedah,Silty,Paddy,83.0,2.6,18610.3,High,A
Kedah,Silty,Papaya,89.7,35.1,7353.1,Low,B
Kedah,Silty,Papaya,229.9,36.1,2187.9,Low,B
Kedah,Silty,Papaya,212.7,37.2,19054.4,Medium,A
Kedah,Silty,Papaya,91.8,34.7,19847.8,Medium,S
Kedah,Silty,Papaya,142.2,22.6,6876.2,High,A
Kedah,Silty,Papaya,130.2,25.4,2424.2,High,B
Kedah,Silty,Durian,213.4,6.4,19729.1,Low,B
Kedah,Silty,Durian,50.4,11.6,6533.5,Low,D
Kedah,Silty,Durian,156.0,14.3,20433.8,Medium,A
Kedah,Silty,Durian,256.0,32.7,20032.3,Medium,S
Kedah,Silty,Durian,347.2,11.7,21129.3,High,S
Kedah,Silty,Durian,72.9,16.4,9209.9,High,A
Kelantan,Clay,Tomato,75.4,3.9,5022.1,Low,D
Kelantan,Clay,Tomato,150.5,9.8,10504.9,Low,C
Kelantan,Clay,Tomato,256.1,28.9,7740.1,Medium,A
Kelantan,Clay,Tomato,131.3,23.5,9382.2,Medium,B
Kelantan,Clay,Tomato,322.1,36.3,17777.1,High,S
Kelantan,Clay,Tomato,343.4,35.4,4931.8,High,S
Kelantan,Clay,Lettuce,184.0,36.3,21526.8,Low,S
Kelantan,Clay,Lettuce,83.9,20.4,16534.2,Low,C
Kelantan,Clay,Lettuce,146.9,7.5,17350.7,Medium,B
Kelantan,Clay,Lettuce,198.3,22.7,21457.0,Medium,S
Kelantan,Clay,Lettuce,241.0,7.9,20880.6,High,S
Kelantan,Clay,Lettuce,165.0,25.6,12774.9,High,S
Kelantan,Clay,Chili,210.9,11.9,3672.4,Low,C
Kelantan,Clay,Chili,208.1,35.4,18225.8,Low,A
Kelantan,Clay,Chili,76.2,17.6,6065.6,Medium,B
Kelantan,Clay,Chili,158.7,22.4,4671.9,Medium,C
Kelantan,Clay,Chili,323.4,17.5,18986.6,High,S
Kelantan,Clay,Chili,91.8,21.8,18705.0,High,S
Kelantan,Clay,Corn,329.4,20.1,6214.7,Low,C
Kelantan,Clay,Corn,274.1,7.0,15915.6,Low,C
Kelantan,Clay,Corn,269.9,31.9,10494.2,Medium,A
Kelantan,Clay,Corn,81.8,27.0,11536.5,Medium,B
Kelantan,Clay,Corn,97.5,8.3,4825.5,High,C
Kelantan,Clay,Corn,53.7,37.7,10329.9,High,S
Kelantan,Clay,Paddy,190.9,8.0,12549.0,Low,B
Kelantan,Clay,Paddy,191.1,33.1,10879.5,Low,B
Kelantan,Clay,Paddy,54.0,6.8,3200.0,Medium,C
Kelantan,Clay,Paddy,231.3,9.5,5207.0,Medium,C
Kelantan,Clay,Paddy,177.1,42.8,11085.9,High,S
Kelantan,Clay,Paddy,127.4,26.6,8120.7,High,A
Kelantan,Clay,Papaya,329.4,13.7,3838.7,Low,C
Kelantan,Clay,Papaya,335.3,34.0,10008.0,Low,B
Kelantan,Clay,Papaya,167.7,37.4,21519.7,Medium,S
Kelantan,Clay,Papaya,73.2,31.8,11548.3,Medium,A
Kelantan,Clay,Papaya,171.5,18.4,3093.4,High,B
Kelantan,Clay,Papaya,177.3,13.6,4088.0,High,B
Kelantan,Clay,Durian,283.6,16.4,6790.6,Low,C
Kelantan,Clay,Durian,81.9,11.1,2219.5,Low,D
Kelantan,Clay,Durian,106.3,10.7,20584.0,Medium,B
Kelantan,Clay,Durian,75.5,26.5,2897.5,Medium,B
Kelantan,Clay,Durian,195.1,4.1,3864.2,High,B
Kelantan,Clay,Durian,344.2,34.3,21174.8,High,S
Kelantan,Loam,Tomato,144.3,18.8,9116.7,Low,C
Kelantan,Loam,Tomato,252.4,16.2,19930.2,Low,A
Kelantan,Loam,Tomato,200.7,35.3,2473.7,Medium,A
Kelantan,Loam,Tomato,193.1,39.4,2748.2,Medium,B
Kelantan,Loam,Tomato,254.7,5.4,14519.1,High,S
Kelantan,Loam,Tomato,119.5,11.3,15629.2,High,A
Kelantan,Loam,Lettuce,265.6,44.7,12032.4,Low,S
Kelantan,Loam,Lettuce,232.6,24.5,17372.7,Low,A
Kelantan,Loam,Lettuce,89.4,14.5,14469.4,Medium,A
Kelantan,Loam,Lettuce,62.0,32.6,15657.5,Medium,A
Kelantan,Loam,Lettuce,349.1,28.1,21160.3,High,S
Kelantan,Loam,Lettuce,348.3,6.2,2298.8,High,A
Kelantan,Loam,Chili,142.9,39.3,17947.7,Low,S
Kelantan,Loam,Chili,199.7,21.6,5394.4,Low,C
Kelantan,Loam,Chili,70.4,26.8,9067.4,Medium,B
Kelantan,Loam,Chili,263.2,21.8,21722.9,Medium,S
Kelantan,Loam,Chili,278.9,21.0,20483.2,High,S
Kelantan,Loam,Chili,341.5,23.0,9269.4,High,S
Kelantan,Loam,Corn,172.7,28.6,15611.7,Low,B
Kelantan,Loam,Corn,203.7,28.9,8272.9,Low,C
Kelantan,Loam,Corn,174.0,21.4,19548.2,Medium,S
Kelantan,Loam,Corn,62.8,44.0,3141.2,Medium,A
Kelantan,Loam,Corn,259.9,26.1,5091.2,High,A
Kelantan,Loam,Corn,162.7,26.5,19076.6,High,S
Kelantan,Loam,Paddy,312.2,30.8,8978.8,Low,A
Kelantan,Loam,Paddy,210.5,37.2,4182.4,Low,B
Kelantan,Loam,Paddy,82.5,43.3,9938.9,Medium,A
Kelantan,Loam,Paddy,170.5,4.8,8848.5,Medium,B
Kelantan,Loam,Paddy,113.8,33.9,4286.5,High,A
Kelantan,Loam,Paddy,213.5,42.8,4910.3,High,S
Kelantan,Loam,Papaya,220.5,44.5,17484.1,Low,A
Kelantan,Loam,Papaya,292.6,36.0,21571.2,Low,S
Kelantan,Loam,Papaya,113.4,3.0,17172.3,Medium,B
Kelantan,Loam,Papaya,125.6,9.6,4834.8,Medium,C
Kelantan,Loam,Papaya,74.5,39.6,11028.4,High,S
Kelantan,Loam,Papaya,114.2,40.4,5681.6,High,A
Kelantan,Loam,Durian,318.5,20.4,21267.3,Low,A
Kelantan,Loam,Durian,109.6,42.5,11632.5,Low,B
Kelantan,Loam,Durian,285.2,43.5,10735.7,Medium,S
Kelantan,Loam,Durian,221.1,37.4,13218.2,Medium,S
Kelantan,Loam,Durian,109.6,33.1,13569.8,High,A
Kelantan,Loam,Durian,249.2,37.4,16687.1,High,S
Kelantan,Sandy,Tomato,269.9,2.6,19930.0,Low,B
Kelantan,Sandy,Tomato,199.8,15.6,17840.3,Low,B
Kelantan,Sandy,Tomato,128.8,33.1,21764.8,Medium,S
Kelantan,Sandy,Tomato,307.2,29.3,14778.3,Medium,S
Kelantan,Sandy,Tomato,60.9,34.1,5753.1,High,A
Kelantan,Sandy,Tomato,282.3,27.8,6322.7,High,A
Kelantan,Sandy,Lettuce,107.3,31.2,21102.1,Low,B
Kelantan,Sandy,Lettuce,159.1,15.0,8139.3,Low,C
Kelantan,Sandy,Lettuce,87.4,23.5,21981.0,Medium,A
Kelantan,Sandy,Lettuce,155.5,37.6,10517.0,Medium,S
Kelantan,Sandy,Lettuce,150.7,41.8,11176.5,High,S
Kelantan,Sandy,Lettuce,215.8,9.0,10717.5,High,B
Kelantan,Sandy,Chili,247.9,31.3,14682.1,Low,A
Kelantan,Sandy,Chili,331.4,41.0,3984.5,Low,B
Kelantan,Sandy,Chili,301.2,5.9,2328.5,Medium,B
Kelantan,Sandy,Chili,81.1,34.2,14476.5,Medium,A
Kelantan,Sandy,Chili,240.1,23.6,18117.4,High,S
Kelantan,Sandy,Chili,305.5,11.1,17537.6,High,S
Kelantan,Sandy,Corn,84.4,38.8,21011.0,Low,A
Kelantan,Sandy,Corn,288.1,21.9,20159.9,Low,A
Kelantan,Sandy,Corn,285.4,19.0,20792.3,Medium,S
Kelantan,Sandy,Corn,202.3,13.5,15173.6,Medium,B
Kelantan,Sandy,Corn,320.8,41.1,15466.0,High,S
Kelantan,Sandy,Corn,322.7,3.4,2524.9,High,A
Kelantan,Sandy,Paddy,302.2,24.3,16824.9,Low,A
Kelantan,Sandy,Paddy,101.1,26.6,10600.4,Low,C
Kelantan,Sandy,Paddy,167.4,28.5,9866.4,Medium,B
Kelantan,Sandy,Paddy,329.6,20.5,20787.8,Medium,S
Kelantan,Sandy,Paddy,268.4,19.3,8362.5,High,A
Kelantan,Sandy,Paddy,119.3,32.5,4526.6,High,B
Kelantan,Sandy,Papaya,223.1,18.9,17243.4,Low,A
Kelantan,Sandy,Papaya,301.2,8.8,8448.1,Low,C
Kelantan,Sandy,Papaya,57.7,2.5,17400.6,Medium,C
Kelantan,Sandy,Papaya,235.4,25.4,21448.0,Medium,S
Kelantan,Sandy,Papaya,57.6,33.6,21668.3,High,S
Kelantan,Sandy,Papaya,283.3,10.0,15050.5,High,A
Kelantan,Sandy,Durian,108.1,38.1,16526.3,Low,A
Kelantan,Sandy,Durian,163.4,13.2,3035.0,Low,D
Kelantan,Sandy,Durian,93.1,3.0,21696.0,Medium,A
Kelantan,Sandy,Durian,83.3,41.9,4453.7,Medium,B
Kelantan,Sandy,Durian,128.6,9.8,3547.6,High,B
Kelantan,Sandy,Durian,323.8,10.9,4013.4,High,A
Kelantan,Silty,Tomato,174.1,22.9,14513.7,Low,B
Kelantan,Silty,Tomato,176.0,40.3,14671.0,Low,A
Kelantan,Silty,Tomato,98.3,14.8,20072.8,Medium,A
Kelantan,Silty,Tomato,239.4,38.8,4344.1,Medium,A
Kelantan,Silty,Tomato,154.0,44.8,13999.9,High,S
Kelantan,Silty,Tomato,206.5,12.9,4431.9,High,A
Kelantan,Silty,Lettuce,210.8,24.3,17219.2,Low,B
Kelantan,Silty,Lettuce,159.5,40.6,2590.0,Low,C
Kelantan,Silty,Lettuce,75.0,31.7,4531.6,Medium,B
Kelantan,Silty,Lettuce,109.8,6.0,16161.7,Medium,B
Kelantan,Silty,Lettuce,190.1,36.8,10721.2,High,S
Kelantan,Silty,Lettuce,326.7,12.8,5957.5,High,S
Kelantan,Silty,Chili,265.2,43.4,4057.9,Low,A
Kelantan,Silty,Chili,226.3,9.1,6116.6,Low,C
Kelantan,Silty,Chili,180.0,21.2,13926.6,Medium,B
Kelantan,Silty,Chili,145.6,6.6,9660.9,Medium,C
Kelantan,Silty,Chili,155.9,40.6,18386.8,High,S
Kelantan,Silty,Chili,316.8,43.2,7061.3,High,S
Kelantan,Silty,Corn,231.2,39.7,21007.6,Low,S
Kelantan,Silty,Corn,169.5,6.9,18180.8,Low,C
Kelantan,Silty,Corn,105.8,12.5,6303.7,Medium,C
Kelantan,Silty,Corn,93.5,15.5,2192.7,Medium,C
Kelantan,Silty,Corn,265.0,11.2,13349.4,High,A
Kelantan,Silty,Corn,119.8,4.8,7672.3,High,B
Kelantan,Silty,Paddy,115.2,26.1,16325.3,Low,A
Kelantan,Silty,Paddy,292.2,30.9,13479.0,Low,A
Kelantan,Silty,Paddy,254.6,20.7,18267.9,Medium,A
Kelantan,Silty,Paddy,64.9,23.2,2935.8,Medium,C
Kelantan,Silty,Paddy,85.8,21.5,14028.6,High,A
Kelantan,Silty,Paddy,120.9,2.9,2356.7,High,B
Kelantan,Silty,Papaya,222.7,2.2,11235.4,Low,D
Kelantan,Silty,Papaya,340.1,3.6,12669.3,Low,B
Kelantan,Silty,Papaya,151.2,2.7,11397.9,Medium,B
Kelantan,Silty,Papaya,174.5,14.9,8343.8,Medium,B
Kelantan,Silty,Papaya,73.9,35.3,11876.4,High,A
Kelantan,Silty,Papaya,139.5,44.3,11866.7,High,S
Kelantan,Silty,Durian,323.1,38.3,20754.1,Low,S
Kelantan,Silty,Durian,117.2,37.5,4774.7,Low,B
Kelantan,Silty,Durian,308.4,33.1,6526.8,Medium,A
Kelantan,Silty,Durian,267.2,36.9,18323.0,Medium,S
Kelantan,Silty,Durian,51.5,31.6,3049.8,High,A
Kelantan,Silty,Durian,62.9,4.1,8085.8,High,C
Melaka,Clay,Tomato,256.4,36.0,9591.1,Low,A
Melaka,Clay,Tomato,327.5,27.1,4398.0,Low,C
Melaka,Clay,Tomato,94.4,27.1,19003.1,Medium,A
Melaka,Clay,Tomato,241.1,30.7,12435.3,Medium,A
Melaka,Clay,Tomato,193.4,23.1,7610.8,High,A
Melaka,Clay,Tomato,194.8,5.9,17324.0,High,A
Melaka,Clay,Lettuce,155.9,37.9,6847.5,Low,B
Melaka,Clay,Lettuce,306.8,31.9,3502.9,Low,B
Melaka,Clay,Lettuce,113.7,30.8,11363.0,Medium,B
Melaka,Clay,Lettuce,196.3,16.6,18279.9,Medium,A
Melaka,Clay,Lettuce,204.2,15.5,20887.6,High,S
Melaka,Clay,Lettuce,246.6,38.5,4113.2,High,A
Melaka,Clay,Chili,325.0,18.6,11048.6,Low,B
Melaka,Clay,Chili,110.9,19.2,3372.8,Low,D
Melaka,Clay,Chili,255.9,42.9,13544.8,Medium,A
Melaka,Clay,Chili,188.3,6.6,4204.0,Medium,D
Melaka,Clay,Chili,188.3,13.5,11524.8,High,A
Melaka,Clay,Chili,155.6,7.1,13006.1,High,B
Melaka,Clay,Corn,113.6,19.1,10617.0,Low,C
Melaka,Clay,Corn,182.4,17.9,2982.7,Low,D
Melaka,Clay,Corn,328.4,10.3,5789.0,Medium,C
Melaka,Clay,Corn,132.8,28.1,12372.4,Medium,B
Melaka,Clay,Corn,65.0,12.7,4221.7,High,C
Melaka,Clay,Corn,318.5,26.7,6775.3,High,S
Melaka,Clay,Paddy,132.6,40.0,15990.2,Low,B
Melaka,Clay,Paddy,167.9,11.5,18481.4,Low,B
Melaka,Clay,Paddy,198.6,9.4,6071.5,Medium,C
Melaka,Clay,Paddy,261.8,14.4,2062.1,Medium,C
Melaka,Clay,Paddy,322.3,28.8,16781.8,High,S
Melaka,Clay,Paddy,256.4,9.3,15628.8,High,A
Melaka,Clay,Papaya,149.6,21.6,21244.9,Low,B
Melaka,Clay,Papaya,178.4,2.9,21487.4,Low,B
Melaka,Clay,Papaya,101.2,34.7,2194.7,Medium,C
Melaka,Clay,Papaya,192.1,2.0,19464.4,Medium,B
Melaka,Clay,Papaya,63.6,2.7,15600.9,High,B
Melaka,Clay,Papaya,118.5,23.6,17099.8,High,S
Melaka,Clay,Durian,80.0,36.6,8713.5,Low,C
Melaka,Clay,Durian,155.2,25.5,15268.2,Low,B
Melaka,Clay,Durian,187.6,37.6,8022.7,Medium,A
Melaka,Clay,Durian,205.3,30.5,19302.6,Medium,S
Melaka,Clay,Durian,195.3,13.6,12386.2,High,A
Melaka,Clay,Durian,94.4,19.6,6405.1,High,A
Melaka,Loam,Tomato,157.2,3.3,13551.7,Low,C
Melaka,Loam,Tomato,179.2,10.9,3785.5,Low,C
Melaka,Loam,Tomato,163.3,6.6,7478.5,Medium,C
Melaka,Loam,Tomato,213.5,41.2,21746.6,Medium,S
Melaka,Loam,Tomato,102.5,41.1,8976.9,High,A
Melaka,Loam,Tomato,226.7,42.6,7524.9,High,S
Melaka,Loam,Lettuce,223.9,32.2,18683.4,Low,B
Melaka,Loam,Lettuce,288.6,26.4,17850.5,Low,A
Melaka,Loam,Lettuce,83.1,2.4,20544.7,Medium,C
Melaka,Loam,Lettuce,254.3,24.5,7795.6,Medium,A
Melaka,Loam,Lettuce,98.8,22.9,3292.3,High,B
Melaka,Loam,Lettuce,186.2,11.3,18509.4,High,A
Melaka,Loam,Chili,196.5,2.2,9045.1,Low,C
Melaka,Loam,Chili,65.0,7.9,19574.4,Low,B
Melaka,Loam,Chili,200.6,43.2,13215.0,Medium,S
Melaka,Loam,Chili,264.0,8.1,16661.1,Medium,A
Melaka,Loam,Chili,325.5,14.5,2642.7,High,A
Melaka,Loam,Chili,124.6,31.2,9724.8,High,A
Melaka,Loam,Corn,321.2,40.4,20403.9,Low,S
Melaka,Loam,Corn,102.0,20.7,19518.6,Low,B
Melaka,Loam,Corn,91.8,35.0,7000.4,Medium,B
Melaka,Loam,Corn,109.9,15.1,7946.7,Medium,B
Melaka,Loam,Corn,188.3,9.9,17648.1,High,S
Melaka,Loam,Corn,78.8,24.6,15882.7,High,A
Melaka,Loam,Paddy,255.5,17.4,9083.9,Low,C
Melaka,Loam,Paddy,338.4,21.8,20251.2,Low,B
Melaka,Loam,Paddy,280.0,5.8,4811.7,Medium,B
Melaka,Loam,Paddy,286.0,27.0,9462.2,Medium,A
Melaka,Loam,Paddy,320.0,39.7,3070.7,High,S
Melaka,Loam,Paddy,87.8,30.8,11256.2,High,S
Melaka,Loam,Papaya,205.4,38.1,3693.2,Low,C
Melaka,Loam,Papaya,345.9,6.6,13886.8,Low,B
Melaka,Loam,Papaya,219.6,31.7,19286.3,Medium,A
Melaka,Loam,Papaya,225.4,24.0,16339.0,Medium,A
Melaka,Loam,Papaya,204.9,26.2,21345.6,High,S
Melaka,Loam,Papaya,318.5,29.5,5095.5,High,S
Melaka,Loam,Durian,265.7,42.3,18112.3,Low,S
Melaka,Loam,Durian,110.2,4.9,5060.4,Low,D
Melaka,Loam,Durian,205.9,12.6,4072.1,Medium,C
Melaka,Loam,Durian,201.7,18.8,20520.9,Medium,A
Melaka,Loam,Durian,195.1,9.9,6698.6,High,A
Melaka,Loam,Durian,128.1,28.3,10782.6,High,S
Melaka,Sandy,Tomato,87.0,8.3,2433.2,Low,F
Melaka,Sandy,Tomato,273.4,12.3,12230.3,Low,B
Melaka,Sandy,Tomato,110.1,22.7,7789.0,Medium,C
Melaka,Sandy,Tomato,226.6,17.8,7503.6,Medium,B
Melaka,Sandy,Tomato,290.0,22.0,18269.9,High,S
Melaka,Sandy,Tomato,135.0,7.2,9788.6,High,B
Melaka,Sandy,Lettuce,60.2,30.0,15143.8,Low,C
Melaka,Sandy,Lettuce,322.4,17.3,4786.1,Low,B
Melaka,Sandy,Lettuce,187.5,2.4,5166.3,Medium,C
Melaka,Sandy,Lettuce,308.3,11.1,20051.0,Medium,A
Melaka,Sandy,Lettuce,203.9,9.5,5028.1,High,B
Melaka,Sandy,Lettuce,218.9,21.8,19173.3,High,A
Melaka,Sandy,Chili,285.5,30.3,20469.5,Low,A
Melaka,Sandy,Chili,301.8,22.8,21251.1,Low,A
Melaka,Sandy,Chili,104.1,32.5,12139.6,Medium,A
Melaka,Sandy,Chili,127.8,32.0,13777.0,Medium,A
Melaka,Sandy,Chili,225.3,37.7,3351.4,High,A
Melaka,Sandy,Chili,269.9,12.0,15305.2,High,A
Melaka,Sandy,Corn,253.8,15.9,6630.7,Low,C
Melaka,Sandy,Corn,325.2,36.2,4108.6,Low,A
Melaka,Sandy,Corn,268.4,18.5,21466.4,Medium,S
Melaka,Sandy,Corn,68.6,12.8,2748.4,Medium,C
Melaka,Sandy,Corn,182.5,18.1,14625.9,High,A
Melaka,Sandy,Corn,102.2,6.6,10990.2,High,C
Melaka,Sandy,Paddy,241.2,25.9,5914.4,Low,C
Melaka,Sandy,Paddy,253.7,11.7,16843.1,Low,B
Melaka,Sandy,Paddy,208.6,36.0,3720.4,Medium,B
Melaka,Sandy,Paddy,337.9,6.1,2664.8,Medium,C
Melaka,Sandy,Paddy,51.6,35.3,13365.9,High,S
Melaka,Sandy,Paddy,152.2,31.3,21154.9,High,S
Melaka,Sandy,Papaya,208.4,10.2,6149.5,Low,C
Melaka,Sandy,Papaya,200.3,17.3,19995.1,Low,A
Melaka,Sandy,Papaya,290.5,20.9,14509.4,Medium,S
Melaka,Sandy,Papaya,220.7,7.5,12344.9,Medium,C
Melaka,Sandy,Papaya,199.6,4.2,12810.8,High,B
Melaka,Sandy,Papaya,296.4,14.5,18563.0,High,S
Melaka,Sandy,Durian,157.4,39.5,5157.3,Low,C
Melaka,Sandy,Durian,210.3,12.4,12355.2,Low,C
Melaka,Sandy,Durian,143.7,28.6,12918.8,Medium,A
Melaka,Sandy,Durian,224.8,42.3,21698.7,Medium,S
Melaka,Sandy,Durian,59.7,20.1,6010.2,High,B
Melaka,Sandy,Durian,67.8,10.8,18335.2,High,B
Melaka,Silty,Tomato,277.2,41.2,3246.6,Low,B
Melaka,Silty,Tomato,291.7,26.2,14200.0,Low,A
Melaka,Silty,Tomato,292.2,16.9,3415.3,Medium,B
Melaka,Silty,Tomato,271.8,42.0,19750.4,Medium,S
Melaka,Silty,Tomato,88.8,33.1,4081.2,High,A
Melaka,Silty,Tomato,117.6,17.1,11551.9,High,A
Melaka,Silty,Lettuce,312.9,11.8,20624.9,Low,B
Melaka,Silty,Lettuce,284.5,10.4,14162.8,Low,B
Melaka,Silty,Lettuce,255.1,2.8,11643.5,Medium,B
Melaka,Silty,Lettuce,163.2,7.4,16026.8,Medium,B
Melaka,Silty,Lettuce,84.7,7.1,14313.1,High,A
Melaka,Silty,Lettuce,155.5,16.8,20361.4,High,A
Melaka,Silty,Chili,77.6,2.4,10261.3,Low,D
Melaka,Silty,Chili,292.3,25.1,2915.6,Low,B
Melaka,Silty,Chili,312.0,12.7,3137.7,Medium,C
Melaka,Silty,Chili,181.6,14.2,8282.5,Medium,B
Melaka,Silty,Chili,317.1,44.9,4594.3,High,S
Melaka,Silty,Chili,247.3,30.2,3527.6,High,S
Melaka,Silty,Corn,111.8,32.3,18268.5,Low,A
Melaka,Silty,Corn,307.6,21.1,8054.4,Low,B
Melaka,Silty,Corn,215.4,39.4,6884.1,Medium,A
Melaka,Silty,Corn,145.7,25.3,4087.6,Medium,C
Melaka,Silty,Corn,173.3,42.9,11724.2,High,S
Melaka,Silty,Corn,323.6,38.2,12419.9,High,S
Melaka,Silty,Paddy,215.9,7.3,16498.2,Low,B
Melaka,Silty,Paddy,60.8,12.1,10805.5,Low,C
Melaka,Silty,Paddy,335.9,2.9,18726.5,Medium,A
Melaka,Silty,Paddy,226.5,14.9,21301.9,Medium,A
Melaka,Silty,Paddy,306.4,18.5,2377.0,High,A
Melaka,Silty,Paddy,183.2,11.7,9586.5,High,A
Melaka,Silty,Papaya,209.7,30.4,2626.1,Low,B
Melaka,Silty,Papaya,331.2,41.1,17089.6,Low,A
Melaka,Silty,Papaya,298.4,13.3,17066.4,Medium,A
Melaka,Silty,Papaya,58.2,33.2,14430.6,Medium,A
Melaka,Silty,Papaya,284.8,41.9,17048.0,High,S
Melaka,Silty,Papaya,216.0,43.0,20649.5,High,S
Melaka,Silty,Durian,347.3,25.0,10476.7,Low,A
Melaka,Silty,Durian,280.7,13.2,21206.1,Low,B
Melaka,Silty,Durian,347.8,12.2,20154.3,Medium,A
Melaka,Silty,Durian,254.8,13.8,21976.1,Medium,S
Melaka,Silty,Durian,138.7,26.6,2772.1,High,B
Melaka,Silty,Durian,130.6,12.8,15060.6,High,A
'Negeri Sembilan',Clay,Tomato,53.7,15.2,15215.5,Low,C
'Negeri Sembilan',Clay,Tomato,304.3,21.1,2345.3,Low,D
'Negeri Sembilan',Clay,Tomato,61.1,17.4,14754.9,Medium,B
'Negeri Sembilan',Clay,Tomato,172.6,26.9,3590.9,Medium,B
'Negeri Sembilan',Clay,Tomato,215.4,43.0,10808.8,High,S
'Negeri Sembilan',Clay,Tomato,286.0,13.2,11898.6,High,A
'Negeri Sembilan',Clay,Lettuce,102.3,39.5,15119.6,Low,B
'Negeri Sembilan',Clay,Lettuce,246.4,9.9,12134.4,Low,C
'Negeri Sembilan',Clay,Lettuce,145.2,25.8,6559.0,Medium,B
'Negeri Sembilan',Clay,Lettuce,347.6,43.9,2322.4,Medium,S
'Negeri Sembilan',Clay,Lettuce,304.8,25.2,2894.7,High,A
'Negeri Sembilan',Clay,Lettuce,82.7,23.8,4263.7,High,B
'Negeri Sembilan',Clay,Chili,111.2,26.5,18582.8,Low,B
'Negeri Sembilan',Clay,Chili,71.4,20.3,7661.7,Low,D
'Negeri Sembilan',Clay,Chili,232.1,17.5,21502.0,Medium,S
'Negeri Sembilan',Clay,Chili,162.4,42.5,7881.3,Medium,B
'Negeri Sembilan',Clay,Chili,160.5,14.5,5001.3,High,B
'Negeri Sembilan',Clay,Chili,81.9,11.1,8262.1,High,B
'Negeri Sembilan',Clay,Corn,272.6,35.7,16256.8,Low,S
'Negeri Sembilan',Clay,Corn,163.7,27.1,15141.2,Low,C
'Negeri Sembilan',Clay,Corn,278.8,29.9,21103.6,Medium,S
'Negeri Sembilan',Clay,Corn,347.7,26.3,21956.3,Medium,S
'Negeri Sembilan',Clay,Corn,270.2,25.2,4424.8,High,S
'Negeri Sembilan',Clay,Corn,289.5,28.1,15184.0,High,S
'Negeri Sembilan',Clay,Paddy,145.1,10.4,13504.9,Low,C
'Negeri Sembilan',Clay,Paddy,148.6,36.4,21549.5,Low,A
'Negeri Sembilan',Clay,Paddy,144.4,43.8,15861.5,Medium,S
'Negeri Sembilan',Clay,Paddy,337.3,19.6,3593.8,Medium,B
'Negeri Sembilan',Clay,Paddy,72.9,17.6,11683.1,High,B
'Negeri Sembilan',Clay,Paddy,285.9,11.9,18556.4,High,S
'Negeri Sembilan',Clay,Papaya,327.7,12.5,20185.3,Low,A
'Negeri Sembilan',Clay,Papaya,249.8,28.0,17917.1,Low,B
'Negeri Sembilan',Clay,Papaya,85.4,19.6,12100.5,Medium,C
'Negeri Sembilan',Clay,Papaya,198.3,39.9,5962.1,Medium,B
'Negeri Sembilan',Clay,Papaya,186.2,9.2,10372.5,High,A
'Negeri Sembilan',Clay,Papaya,263.4,22.2,4019.9,High,A
'Negeri Sembilan',Clay,Durian,300.2,3.0,5338.7,Low,D
'Negeri Sembilan',Clay,Durian,204.5,24.8,9762.3,Low,C
'Negeri Sembilan',Clay,Durian,88.2,32.0,6828.7,Medium,B
'Negeri Sembilan',Clay,Durian,151.0,37.5,8732.8,Medium,A
'Negeri Sembilan',Clay,Durian,82.3,33.1,3475.1,High,A
'Negeri Sembilan',Clay,Durian,335.0,41.2,14616.6,High,S
'Negeri Sembilan',Loam,Tomato,180.7,34.6,16002.3,Low,A
'Negeri Sembilan',Loam,Tomato,267.1,27.4,18402.1,Low,A
'Negeri Sembilan',Loam,Tomato,95.7,2.3,13861.0,Medium,B
'Negeri Sembilan',Loam,Tomato,186.1,15.8,5534.4,Medium,B
'Negeri Sembilan',Loam,Tomato,133.8,35.2,6645.3,High,A
'Negeri Sembilan',Loam,Tomato,64.5,24.3,12503.9,High,A
'Negeri Sembilan',Loam,Lettuce,328.4,14.3,9681.4,Low,B
'Negeri Sembilan',Loam,Lettuce,336.1,3.8,20901.1,Low,A
'Negeri Sembilan',Loam,Lettuce,269.3,20.5,7565.1,Medium,A
'Negeri Sembilan',Loam,Lettuce,144.3,16.9,5311.9,Medium,C
'Negeri Sembilan',Loam,Lettuce,196.0,11.6,5386.4,High,A
'Negeri Sembilan',Loam,Lettuce,127.8,28.1,4122.4,High,B
'Negeri Sembilan',Loam,Chili,133.6,6.1,13043.3,Low,C
'Negeri Sembilan',Loam,Chili,100.7,27.7,2794.9,Low,C
'Negeri Sembilan',Loam,Chili,211.4,10.4,11767.3,Medium,B
'Negeri Sembilan',Loam,Chili,160.9,14.1,20957.6,Medium,A
'Negeri Sembilan',Loam,Chili,183.4,7.4,11077.0,High,A
'Negeri Sembilan',Loam,Chili,264.9,41.5,4398.8,High,S
'Negeri Sembilan',Loam,Corn,198.0,5.7,4736.4,Low,D
'Negeri Sembilan',Loam,Corn,250.6,43.6,18072.8,Low,S
'Negeri Sembilan',Loam,Corn,116.7,5.2,5134.5,Medium,C
'Negeri Sembilan',Loam,Corn,186.0,33.6,15441.6,Medium,A
'Negeri Sembilan',Loam,Corn,256.4,40.4,2767.1,High,A
'Negeri Sembilan',Loam,Corn,261.5,24.4,5808.0,High,A
'Negeri Sembilan',Loam,Paddy,301.3,28.9,20983.7,Low,S
'Negeri Sembilan',Loam,Paddy,123.8,27.2,19442.3,Low,B
'Negeri Sembilan',Loam,Paddy,108.7,22.2,11690.1,Medium,B
'Negeri Sembilan',Loam,Paddy,199.0,7.7,14695.5,Medium,B
'Negeri Sembilan',Loam,Paddy,204.9,33.1,6283.8,High,A
'Negeri Sembilan',Loam,Paddy,197.2,28.3,16199.8,High,A
'Negeri Sembilan',Loam,Papaya,256.4,28.4,14620.5,Low,B
'Negeri Sembilan',Loam,Papaya,154.6,24.8,21086.7,Low,A
'Negeri Sembilan',Loam,Papaya,302.2,39.6,15359.5,Medium,S
'Negeri Sembilan',Loam,Papaya,239.0,27.7,12868.3,Medium,A
'Negeri Sembilan',Loam,Papaya,115.7,43.4,19936.4,High,S
'Negeri Sembilan',Loam,Papaya,175.9,21.2,6947.9,High,A
'Negeri Sembilan',Loam,Durian,102.9,43.1,15212.3,Low,B
'Negeri Sembilan',Loam,Durian,169.4,7.5,19643.4,Low,B
'Negeri Sembilan',Loam,Durian,309.2,27.8,15744.4,Medium,A
'Negeri Sembilan',Loam,Durian,130.4,11.2,19019.8,Medium,B
'Negeri Sembilan',Loam,Durian,218.7,15.9,15499.8,High,A
'Negeri Sembilan',Loam,Durian,292.7,20.3,7214.0,High,A
'Negeri Sembilan',Sandy,Tomato,195.7,11.4,14725.3,Low,C
'Negeri Sembilan',Sandy,Tomato,184.3,11.5,19512.4,Low,B
'Negeri Sembilan',Sandy,Tomato,283.9,6.7,21365.1,Medium,A
'Negeri Sembilan',Sandy,Tomato,88.8,25.2,21005.6,Medium,B
'Negeri Sembilan',Sandy,Tomato,163.8,35.6,8665.8,High,A
'Negeri Sembilan',Sandy,Tomato,279.8,4.7,2984.3,High,B
'Negeri Sembilan',Sandy,Lettuce,210.6,44.4,18763.0,Low,A
'Negeri Sembilan',Sandy,Lettuce,265.3,14.5,5228.1,Low,C
'Negeri Sembilan',Sandy,Lettuce,174.0,25.8,6974.1,Medium,C
'Negeri Sembilan',Sandy,Lettuce,303.6,34.5,12531.1,Medium,S
'Negeri Sembilan',Sandy,Lettuce,287.4,3.8,7661.8,High,B
'Negeri Sembilan',Sandy,Lettuce,239.5,31.6,2675.6,High,A
'Negeri Sembilan',Sandy,Chili,293.9,18.2,10015.0,Low,B
'Negeri Sembilan',Sandy,Chili,313.0,39.1,3530.5,Low,B
'Negeri Sembilan',Sandy,Chili,261.0,33.5,2403.1,Medium,A
'Negeri Sembilan',Sandy,Chili,212.5,41.5,3911.1,Medium,A
'Negeri Sembilan',Sandy,Chili,167.3,37.8,19186.1,High,S
'Negeri Sembilan',Sandy,Chili,177.5,34.0,8043.1,High,A
'Negeri Sembilan',Sandy,Corn,79.9,43.7,13524.0,Low,B
'Negeri Sembilan',Sandy,Corn,178.9,11.6,10126.6,Low,D
'Negeri Sembilan',Sandy,Corn,135.3,32.2,12131.9,Medium,B
'Negeri Sembilan',Sandy,Corn,347.9,33.3,21029.1,Medium,S
'Negeri Sembilan',Sandy,Corn,264.4,21.4,13557.6,High,A
'Negeri Sembilan',Sandy,Corn,281.4,21.2,11536.1,High,A
'Negeri Sembilan',Sandy,Paddy,143.2,8.2,14598.3,Low,D
'Negeri Sembilan',Sandy,Paddy,218.3,10.9,20841.9,Low,B
'Negeri Sembilan',Sandy,Paddy,75.2,19.3,18761.4,Medium,B
'Negeri Sembilan',Sandy,Paddy,301.9,34.7,3178.7,Medium,A
'Negeri Sembilan',Sandy,Paddy,173.6,33.8,18686.5,High,S
'Negeri Sembilan',Sandy,Paddy,256.7,27.7,19428.6,High,S
'Negeri Sembilan',Sandy,Papaya,112.8,26.2,11774.5,Low,C
'Negeri Sembilan',Sandy,Papaya,337.8,12.1,11227.4,Low,B
'Negeri Sembilan',Sandy,Papaya,216.4,33.8,16661.4,Medium,S
'Negeri Sembilan',Sandy,Papaya,177.7,5.3,4545.6,Medium,D
'Negeri Sembilan',Sandy,Papaya,206.0,7.2,5947.4,High,B
'Negeri Sembilan',Sandy,Papaya,84.1,40.1,11903.7,High,S
'Negeri Sembilan',Sandy,Durian,207.4,8.0,19484.3,Low,C
'Negeri Sembilan',Sandy,Durian,52.8,7.1,21914.9,Low,C
'Negeri Sembilan',Sandy,Durian,314.1,13.7,8447.7,Medium,A
'Negeri Sembilan',Sandy,Durian,219.1,9.1,7803.9,Medium,B
'Negeri Sembilan',Sandy,Durian,290.8,42.9,9425.1,High,S
'Negeri Sembilan',Sandy,Durian,191.6,11.1,8603.5,High,A
'Negeri Sembilan',Silty,Tomato,348.9,41.9,5284.8,Low,A
'Negeri Sembilan',Silty,Tomato,192.2,15.7,5584.5,Low,C
'Negeri Sembilan',Silty,Tomato,348.0,2.2,16029.3,Medium,B
'Negeri Sembilan',Silty,Tomato,78.2,21.7,3894.3,Medium,C
'Negeri Sembilan',Silty,Tomato,228.3,4.9,14726.9,High,A
'Negeri Sembilan',Silty,Tomato,153.5,2.6,5852.8,High,C
'Negeri Sembilan',Silty,Lettuce,323.5,20.3,16586.5,Low,B
'Negeri Sembilan',Silty,Lettuce,280.1,42.2,13222.2,Low,A
'Negeri Sembilan',Silty,Lettuce,110.8,27.5,4059.5,Medium,C
'Negeri Sembilan',Silty,Lettuce,103.5,26.2,4534.1,Medium,B
'Negeri Sembilan',Silty,Lettuce,243.4,18.5,13513.1,High,S
'Negeri Sembilan',Silty,Lettuce,231.4,43.6,16745.3,High,S
'Negeri Sembilan',Silty,Chili,322.8,11.0,2053.4,Low,D
'Negeri Sembilan',Silty,Chili,114.9,42.0,14298.5,Low,B
'Negeri Sembilan',Silty,Chili,192.6,2.0,3555.7,Medium,C
'Negeri Sembilan',Silty,Chili,91.1,36.7,10508.1,Medium,B
'Negeri Sembilan',Silty,Chili,140.8,34.7,6815.5,High,A
'Negeri Sembilan',Silty,Chili,282.2,32.4,9099.8,High,S
'Negeri Sembilan',Silty,Corn,145.1,5.4,14107.6,Low,D
'Negeri Sembilan',Silty,Corn,99.8,29.3,7554.7,Low,C
'Negeri Sembilan',Silty,Corn,181.2,21.0,15902.0,Medium,B
'Negeri Sembilan',Silty,Corn,86.1,40.7,15041.8,Medium,A
'Negeri Sembilan',Silty,Corn,309.8,38.8,17414.9,High,S
'Negeri Sembilan',Silty,Corn,177.2,28.5,19525.9,High,S
'Negeri Sembilan',Silty,Paddy,107.3,18.1,20663.8,Low,B
'Negeri Sembilan',Silty,Paddy,108.8,17.5,5897.8,Low,C
'Negeri Sembilan',Silty,Paddy,148.5,41.2,20316.1,Medium,S
'Negeri Sembilan',Silty,Paddy,53.9,13.7,14944.4,Medium,B
'Negeri Sembilan',Silty,Paddy,169.5,44.8,16085.3,High,S
'Negeri Sembilan',Silty,Paddy,67.2,26.6,2608.5,High,B
'Negeri Sembilan',Silty,Papaya,191.2,28.1,11089.6,Low,C
'Negeri Sembilan',Silty,Papaya,275.0,29.8,12911.7,Low,B
'Negeri Sembilan',Silty,Papaya,160.9,28.4,16266.2,Medium,A
'Negeri Sembilan',Silty,Papaya,103.1,38.6,3656.5,Medium,B
'Negeri Sembilan',Silty,Papaya,85.8,21.1,16211.8,High,A
'Negeri Sembilan',Silty,Papaya,307.4,13.9,19051.5,High,S
'Negeri Sembilan',Silty,Durian,271.2,16.3,15439.8,Low,A
'Negeri Sembilan',Silty,Durian,319.3,9.3,21725.4,Low,A
'Negeri Sembilan',Silty,Durian,159.9,2.6,15289.9,Medium,B
'Negeri Sembilan',Silty,Durian,250.3,4.6,5858.8,Medium,B
'Negeri Sembilan',Silty,Durian,94.3,13.5,5451.7,High,C
'Negeri Sembilan',Silty,Durian,232.6,31.6,10185.0,High,S
Pahang,Clay,Tomato,302.6,42.5,8223.3,Low,A
Pahang,Clay,Tomato,85.3,22.0,18722.1,Low,C
Pahang,Clay,Tomato,329.1,5.8,20360.2,Medium,A
Pahang,Clay,Tomato,75.9,15.7,14532.5,Medium,C
Pahang,Clay,Tomato,100.8,2.4,14758.9,High,B
Pahang,Clay,Tomato,313.2,42.6,8155.6,High,S
Pahang,Clay,Lettuce,332.8,39.2,16948.2,Low,S
Pahang,Clay,Lettuce,143.1,18.3,7741.5,Low,C
Pahang,Clay,Lettuce,219.5,19.8,18705.5,Medium,A
Pahang,Clay,Lettuce,109.8,44.1,7187.1,Medium,A
Pahang,Clay,Lettuce,77.7,17.3,9272.3,High,A
Pahang,Clay,Lettuce,206.9,37.7,15740.8,High,S
Pahang,Clay,Chili,334.9,27.2,5114.1,Low,B
Pahang,Clay,Chili,348.1,20.7,14920.2,Low,A
Pahang,Clay,Chili,136.6,16.7,21369.8,Medium,A
Pahang,Clay,Chili,272.9,13.6,12265.4,Medium,B
Pahang,Clay,Chili,115.5,13.2,20438.4,High,S
Pahang,Clay,Chili,239.3,22.4,11344.9,High,A
Pahang,Clay,Corn,219.1,30.3,20025.5,Low,A
Pahang,Clay,Corn,81.4,17.4,20020.5,Low,C
Pahang,Clay,Corn,192.6,16.5,20059.6,Medium,A
Pahang,Clay,Corn,157.4,9.0,12935.6,Medium,B
Pahang,Clay,Corn,181.7,28.5,13871.5,High,S
Pahang,Clay,Corn,269.3,22.4,6871.8,High,S
Pahang,Clay,Paddy,230.3,22.7,10023.1,Low,C
Pahang,Clay,Paddy,328.7,12.1,20695.1,Low,A
Pahang,Clay,Paddy,82.4,20.3,7387.2,Medium,B
Pahang,Clay,Paddy,227.9,9.1,5327.7,Medium,C
Pahang,Clay,Paddy,229.1,32.0,12481.7,High,S
Pahang,Clay,Paddy,220.4,8.0,15268.1,High,S
Pahang,Clay,Papaya,66.1,5.9,17857.3,Low,C
Pahang,Clay,Papaya,153.8,19.0,11211.8,Low,B
Pahang,Clay,Papaya,110.1,9.4,8150.5,Medium,C
Pahang,Clay,Papaya,307.3,20.8,16482.7,Medium,A
Pahang,Clay,Papaya,216.6,35.4,2098.9,High,A
Pahang,Clay,Papaya,80.0,25.6,9880.9,High,A
Pahang,Clay,Durian,191.7,18.2,11269.7,Low,C
Pahang,Clay,Durian,325.1,18.7,8367.1,Low,B
Pahang,Clay,Durian,170.0,16.1,7663.9,Medium,B
Pahang,Clay,Durian,311.8,27.7,12682.3,Medium,A
Pahang,Clay,Durian,251.0,43.7,2537.9,High,S
Pahang,Clay,Durian,103.4,12.1,9245.6,High,B
Pahang,Loam,Tomato,50.5,27.8,9963.6,Low,C
Pahang,Loam,Tomato,119.0,23.5,2885.0,Low,C
Pahang,Loam,Tomato,77.9,18.5,5597.5,Medium,C
Pahang,Loam,Tomato,143.3,31.0,11613.0,Medium,A
Pahang,Loam,Tomato,336.5,9.7,9964.3,High,S
Pahang,Loam,Tomato,81.9,36.7,8925.7,High,S
Pahang,Loam,Lettuce,246.8,19.4,18138.3,Low,B
Pahang,Loam,Lettuce,88.6,23.8,15726.0,Low,C
Pahang,Loam,Lettuce,246.1,30.8,10449.1,Medium,A
Pahang,Loam,Lettuce,177.5,33.9,4319.2,Medium,A
Pahang,Loam,Lettuce,322.5,23.6,17620.1,High,S
Pahang,Loam,Lettuce,303.3,43.8,4233.4,High,S
Pahang,Loam,Chili,177.2,34.7,19406.3,Low,A
Pahang,Loam,Chili,52.1,42.8,16151.3,Low,B
Pahang,Loam,Chili,204.5,28.4,19444.1,Medium,S
Pahang,Loam,Chili,189.4,3.7,19357.9,Medium,A
Pahang,Loam,Chili,65.0,27.8,9385.9,High,A
Pahang,Loam,Chili,252.5,35.0,2470.6,High,A
Pahang,Loam,Corn,138.0,19.9,10935.4,Low,C
Pahang,Loam,Corn,60.7,6.8,16638.1,Low,C
Pahang,Loam,Corn,168.9,9.5,12699.7,Medium,B
Pahang,Loam,Corn,93.4,23.2,19854.3,Medium,A
Pahang,Loam,Corn,187.4,28.5,20375.5,High,S
Pahang,Loam,Corn,329.7,37.3,13381.4,High,S
Pahang,Loam,Paddy,148.0,3.6,14187.1,Low,C
Pahang,Loam,Paddy,293.7,6.3,12252.6,Low,B
Pahang,Loam,Paddy,151.3,29.4,8039.7,Medium,B
Pahang,Loam,Paddy,105.2,34.1,16431.9,Medium,S
Pahang,Loam,Paddy,73.8,41.2,21303.2,High,S
Pahang,Loam,Paddy,221.3,44.8,14311.6,High,S
Pahang,Loam,Papaya,288.1,31.9,2976.6,Low,B
Pahang,Loam,Papaya,114.6,42.2,7495.7,Low,B
Pahang,Loam,Papaya,105.7,23.6,2914.8,Medium,C
Pahang,Loam,Papaya,104.4,14.3,2101.0,Medium,C
Pahang,Loam,Papaya,284.6,30.3,7495.4,High,S
Pahang,Loam,Papaya,287.1,29.3,3943.0,High,A
Pahang,Loam,Durian,262.7,11.5,14227.7,Low,B
Pahang,Loam,Durian,232.8,21.8,10415.3,Low,B
Pahang,Loam,Durian,212.4,22.5,13153.1,Medium,A
Pahang,Loam,Durian,145.9,37.4,5035.6,Medium,A
Pahang,Loam,Durian,199.7,24.9,5400.3,High,A
Pahang,Loam,Durian,170.9,30.4,13426.3,High,A
Pahang,Sandy,Tomato,196.0,44.4,3661.8,Low,B
Pahang,Sandy,Tomato,208.9,15.1,17017.2,Low,B
Pahang,Sandy,Tomato,190.2,8.7,13698.7,Medium,B
Pahang,Sandy,Tomato,219.5,19.9,17298.8,Medium,A
Pahang,Sandy,Tomato,135.2,34.0,21793.6,High,S
Pahang,Sandy,Tomato,211.3,18.3,20976.4,High,S
Pahang,Sandy,Lettuce,168.7,11.1,4212.7,Low,D
Pahang,Sandy,Lettuce,309.5,35.0,21687.7,Low,S
Pahang,Sandy,Lettuce,215.0,17.1,6355.1,Medium,B
Pahang,Sandy,Lettuce,133.7,35.1,14605.5,Medium,A
Pahang,Sandy,Lettuce,256.1,29.2,14724.2,High,S
Pahang,Sandy,Lettuce,209.8,11.7,10079.3,High,A
Pahang,Sandy,Chili,135.9,41.8,5139.4,Low,B
Pahang,Sandy,Chili,170.0,2.1,18597.3,Low,B
Pahang,Sandy,Chili,246.9,31.4,3966.5,Medium,A
Pahang,Sandy,Chili,175.4,20.0,5777.5,Medium,C
Pahang,Sandy,Chili,117.3,28.2,12067.2,High,A
Pahang,Sandy,Chili,221.2,19.6,2456.7,High,A
Pahang,Sandy,Corn,99.9,28.9,15687.3,Low,A
Pahang,Sandy,Corn,56.8,27.9,17797.6,Low,B
Pahang,Sandy,Corn,203.4,10.3,20264.1,Medium,A
Pahang,Sandy,Corn,266.9,12.3,11443.4,Medium,A
Pahang,Sandy,Corn,109.9,7.7,3296.3,High,C
Pahang,Sandy,Corn,223.3,21.7,15673.4,High,S
Pahang,Sandy,Paddy,122.6,9.6,11228.1,Low,C
Pahang,Sandy,Paddy,291.1,38.0,19441.7,Low,S
Pahang,Sandy,Paddy,123.5,33.0,3396.8,Medium,B
Pahang,Sandy,Paddy,254.6,19.5,12395.4,Medium,A
Pahang,Sandy,Paddy,165.6,35.7,21151.5,High,S
Pahang,Sandy,Paddy,211.2,32.8,14139.5,High,S
Pahang,Sandy,Papaya,264.4,20.9,18555.1,Low,B
Pahang,Sandy,Papaya,293.5,37.6,16503.0,Low,A
Pahang,Sandy,Papaya,169.8,41.9,14585.4,Medium,S
Pahang,Sandy,Papaya,286.2,6.5,18941.4,Medium,A
Pahang,Sandy,Papaya,223.9,36.0,16439.9,High,S
Pahang,Sandy,Papaya,247.0,8.1,6861.4,High,B
Pahang,Sandy,Durian,129.4,16.2,15874.3,Low,C
Pahang,Sandy,Durian,262.7,34.4,17139.6,Low,A
Pahang,Sandy,Durian,256.8,16.2,11007.5,Medium,B
Pahang,Sandy,Durian,132.6,3.5,4800.4,Medium,C
Pahang,Sandy,Durian,57.8,39.8,13270.8,High,S
Pahang,Sandy,Durian,142.0,32.8,13352.8,High,S
Pahang,Silty,Tomato,263.9,31.0,5088.8,Low,B
Pahang,Silty,Tomato,88.6,28.1,19183.0,Low,B
Pahang,Silty,Tomato,118.4,38.6,13664.6,Medium,A
Pahang,Silty,Tomato,53.6,17.7,12171.8,Medium,B
Pahang,Silty,Tomato,205.0,22.5,20000.1,High,S
Pahang,Silty,Tomato,243.2,27.2,12021.9,High,S
Pahang,Silty,Lettuce,163.4,41.8,14967.5,Low,A
Pahang,Silty,Lettuce,194.6,22.8,9597.4,Low,B
Pahang,Silty,Lettuce,69.4,11.7,6128.6,Medium,C
Pahang,Silty,Lettuce,232.6,33.3,4391.8,Medium,B
Pahang,Silty,Lettuce,199.6,26.5,14772.7,High,A
Pahang,Silty,Lettuce,273.9,37.2,17753.7,High,S
Pahang,Silty,Chili,272.4,17.6,2656.8,Low,C
Pahang,Silty,Chili,335.6,23.8,7429.5,Low,A
Pahang,Silty,Chili,304.0,25.1,3588.9,Medium,A
Pahang,Silty,Chili,184.0,24.5,6893.8,Medium,A
Pahang,Silty,Chili,104.8,42.3,19150.5,High,S
Pahang,Silty,Chili,265.2,9.6,21587.5,High,S
Pahang,Silty,Corn,133.2,34.0,16666.7,Low,A
Pahang,Silty,Corn,321.8,7.7,8055.2,Low,C
Pahang,Silty,Corn,123.2,34.8,11545.6,Medium,B
Pahang,Silty,Corn,314.5,4.2,17800.3,Medium,B
Pahang,Silty,Corn,193.5,21.0,11520.7,High,A
Pahang,Silty,Corn,226.8,27.7,7999.2,High,A
Pahang,Silty,Paddy,178.9,40.9,16399.6,Low,A
Pahang,Silty,Paddy,242.8,27.3,14698.7,Low,A
Pahang,Silty,Paddy,347.7,12.8,10143.4,Medium,B
Pahang,Silty,Paddy,239.3,16.1,11665.6,Medium,B
Pahang,Silty,Paddy,243.6,13.4,12643.8,High,A
Pahang,Silty,Paddy,253.4,23.6,14518.4,High,S
Pahang,Silty,Papaya,277.0,9.8,2130.3,Low,C
Pahang,Silty,Papaya,202.9,23.3,5575.9,Low,B
Pahang,Silty,Papaya,251.9,6.1,19240.6,Medium,A
Pahang,Silty,Papaya,256.1,37.4,5871.9,Medium,A
Pahang,Silty,Papaya,119.5,15.2,8107.7,High,A
Pahang,Silty,Papaya,191.6,31.4,20551.0,High,S
Pahang,Silty,Durian,251.6,15.9,5838.1,Low,C
Pahang,Silty,Durian,101.5,8.8,15251.8,Low,C
Pahang,Silty,Durian,204.9,22.4,13904.6,Medium,A
Pahang,Silty,Durian,267.9,11.8,7257.1,Medium,A
Pahang,Silty,Durian,300.3,17.9,8124.6,High,S
Pahang,Silty,Durian,298.8,15.6,8160.3,High,A
Perak,Clay,Tomato,278.8,2.2,20799.7,Low,C
Perak,Clay,Tomato,172.6,29.8,4798.6,Low,C
Perak,Clay,Tomato,132.3,37.2,6044.3,Medium,A
Perak,Clay,Tomato,126.8,37.8,2473.6,Medium,B
Perak,Clay,Tomato,164.7,26.0,16780.3,High,S
Perak,Clay,Tomato,235.3,20.9,7479.3,High,A
Perak,Clay,Lettuce,98.1,33.1,20829.9,Low,A
Perak,Clay,Lettuce,335.6,42.7,17624.6,Low,S
Perak,Clay,Lettuce,337.9,32.4,6996.9,Medium,S
Perak,Clay,Lettuce,225.8,4.6,3122.3,Medium,C
Perak,Clay,Lettuce,211.4,20.8,7684.7,High,A
Perak,Clay,Lettuce,314.3,5.2,21543.6,High,S
Perak,Clay,Chili,297.3,39.6,13796.2,Low,A
Perak,Clay,Chili,218.6,20.8,8556.8,Low,B
Perak,Clay,Chili,248.2,25.9,18346.2,Medium,S
Perak,Clay,Chili,92.1,35.1,19414.5,Medium,S
Perak,Clay,Chili,271.7,43.2,9224.6,High,S
Perak,Clay,Chili,274.2,11.2,8425.3,High,A
Perak,Clay,Corn,158.7,10.6,21428.8,Low,B
Perak,Clay,Corn,231.1,42.1,4805.4,Low,B
Perak,Clay,Corn,178.2,36.7,17961.9,Medium,S
Perak,Clay,Corn,68.1,44.6,9469.5,Medium,A
Perak,Clay,Corn,348.7,43.3,19461.6,High,S
Perak,Clay,Corn,211.6,14.2,8675.1,High,B
Perak,Clay,Paddy,72.7,6.0,13165.8,Low,D
Perak,Clay,Paddy,97.5,24.1,19029.7,Low,B
Perak,Clay,Paddy,190.5,30.0,5817.7,Medium,B
Perak,Clay,Paddy,255.2,37.2,11314.3,Medium,S
Perak,Clay,Paddy,348.3,8.5,8608.6,High,A
Perak,Clay,Paddy,222.6,21.5,17622.3,High,S
Perak,Clay,Papaya,334.6,40.2,10029.3,Low,A
Perak,Clay,Papaya,237.1,18.8,2170.8,Low,C
Perak,Clay,Papaya,95.1,38.8,13687.5,Medium,S
Perak,Clay,Papaya,209.7,30.1,6006.6,Medium,A
Perak,Clay,Papaya,327.6,40.4,16298.1,High,S
Perak,Clay,Papaya,106.7,8.4,8169.6,High,B
Perak,Clay,Durian,210.0,42.6,2789.1,Low,C
Perak,Clay,Durian,154.6,5.0,19411.1,Low,B
Perak,Clay,Durian,247.5,10.7,5265.8,Medium,B
Perak,Clay,Durian,119.9,41.6,17446.9,Medium,A
Perak,Clay,Durian,313.3,42.6,4462.2,High,S
Perak,Clay,Durian,57.6,39.3,19083.8,High,S
Perak,Loam,Tomato,64.8,20.9,5972.8,Low,C
Perak,Loam,Tomato,227.1,7.4,21384.9,Low,B
Perak,Loam,Tomato,223.5,24.2,5257.7,Medium,B
Perak,Loam,Tomato,332.2,33.8,9167.8,Medium,S
Perak,Loam,Tomato,174.5,11.0,3815.8,High,B
Perak,Loam,Tomato,193.4,23.9,20897.9,High,S
Perak,Loam,Lettuce,164.0,20.1,21231.4,Low,B
Perak,Loam,Lettuce,158.1,15.3,3306.1,Low,C
Perak,Loam,Lettuce,245.6,11.9,16024.3,Medium,A
Perak,Loam,Lettuce,293.1,39.7,2317.0,Medium,S
Perak,Loam,Lettuce,268.9,40.6,2907.4,High,S
Perak,Loam,Lettuce,103.2,2.4,12372.4,High,B
Perak,Loam,Chili,190.9,3.7,13924.1,Low,C
Perak,Loam,Chili,272.0,14.6,14351.1,Low,A
Perak,Loam,Chili,175.8,9.5,12372.0,Medium,B
Perak,Loam,Chili,292.8,30.8,9301.4,Medium,S
Perak,Loam,Chili,286.0,3.3,6081.5,High,B
Perak,Loam,Chili,162.0,38.2,14438.3,High,S
Perak,Loam,Corn,57.7,3.2,11410.0,Low,C
Perak,Loam,Corn,93.3,19.5,12789.5,Low,B
Perak,Loam,Corn,266.8,9.3,4002.3,Medium,B
Perak,Loam,Corn,116.8,20.1,3326.5,Medium,B
Perak,Loam,Corn,189.3,19.8,19962.9,High,S
Perak,Loam,Corn,307.1,36.8,2014.4,High,S
Perak,Loam,Paddy,319.9,13.0,8457.5,Low,B
Perak,Loam,Paddy,337.1,30.7,3928.0,Low,B
Perak,Loam,Paddy,299.3,26.6,4516.7,Medium,A
Perak,Loam,Paddy,291.6,8.1,15184.2,Medium,A
Perak,Loam,Paddy,265.2,14.1,14300.3,High,A
Perak,Loam,Paddy,125.2,33.4,8022.2,High,S
Perak,Loam,Papaya,188.6,27.4,12338.1,Low,A
Perak,Loam,Papaya,130.0,40.7,8558.9,Low,B
Perak,Loam,Papaya,93.6,33.7,19015.0,Medium,S
Perak,Loam,Papaya,289.9,29.2,17883.9,Medium,S
Perak,Loam,Papaya,54.3,29.3,18707.6,High,S
Perak,Loam,Papaya,169.0,2.5,11615.5,High,A
Perak,Loam,Durian,106.3,39.4,21415.6,Low,A
Perak,Loam,Durian,347.8,21.5,7256.1,Low,B
Perak,Loam,Durian,273.5,30.2,12289.8,Medium,A
Perak,Loam,Durian,349.0,10.0,8819.7,Medium,A
Perak,Loam,Durian,281.6,21.6,3930.1,High,S
Perak,Loam,Durian,279.0,13.3,17639.1,High,S
Perak,Sandy,Tomato,57.6,25.4,3891.7,Low,C
Perak,Sandy,Tomato,299.0,7.2,16253.9,Low,C
Perak,Sandy,Tomato,154.3,21.5,13066.0,Medium,A
Perak,Sandy,Tomato,339.9,43.8,5652.2,Medium,S
Perak,Sandy,Tomato,315.7,24.0,4834.2,High,S
Perak,Sandy,Tomato,282.8,10.5,16891.9,High,S
Perak,Sandy,Lettuce,284.0,26.2,12611.2,Low,B
Perak,Sandy,Lettuce,209.9,25.2,15873.9,Low,A
Perak,Sandy,Lettuce,100.0,8.8,15607.9,Medium,B
Perak,Sandy,Lettuce,307.7,11.7,20613.0,Medium,S
Perak,Sandy,Lettuce,212.2,43.1,10480.3,High,S
Perak,Sandy,Lettuce,64.7,43.7,10017.5,High,S
Perak,Sandy,Chili,206.5,20.1,11530.9,Low,C
Perak,Sandy,Chili,266.5,14.9,3497.4,Low,C
Perak,Sandy,Chili,250.4,11.0,16669.2,Medium,A
Perak,Sandy,Chili,70.0,34.5,4806.1,Medium,B
Perak,Sandy,Chili,98.1,43.8,21529.1,High,S
Perak,Sandy,Chili,167.4,8.9,10380.2,High,A
Perak,Sandy,Corn,124.6,17.1,6526.1,Low,C
Perak,Sandy,Corn,92.1,19.3,16519.6,Low,B
Perak,Sandy,Corn,251.7,10.9,4848.2,Medium,C
Perak,Sandy,Corn,148.2,29.4,12412.4,Medium,A
Perak,Sandy,Corn,281.5,27.7,6643.6,High,S
Perak,Sandy,Corn,296.7,25.3,14200.7,High,S
Perak,Sandy,Paddy,314.1,34.4,16400.1,Low,S
Perak,Sandy,Paddy,334.8,3.8,18759.5,Low,B
Perak,Sandy,Paddy,238.1,20.3,5369.1,Medium,B
Perak,Sandy,Paddy,309.7,23.0,7822.1,Medium,A
Perak,Sandy,Paddy,76.6,33.5,21194.7,High,S
Perak,Sandy,Paddy,122.4,38.5,11890.6,High,S
Perak,Sandy,Papaya,179.7,4.4,4103.8,Low,D
Perak,Sandy,Papaya,302.7,33.5,20094.6,Low,S
Perak,Sandy,Papaya,148.6,30.7,7025.0,Medium,B
Perak,Sandy,Papaya,53.9,32.7,11711.0,Medium,B
Perak,Sandy,Papaya,116.4,20.7,7315.1,High,A
Perak,Sandy,Papaya,297.9,23.0,14132.8,High,S
Perak,Sandy,Durian,232.0,39.4,15351.1,Low,B
Perak,Sandy,Durian,82.3,38.0,14853.6,Low,B
Perak,Sandy,Durian,78.5,43.6,6772.3,Medium,A
Perak,Sandy,Durian,262.8,28.0,18305.7,Medium,S
Perak,Sandy,Durian,62.0,29.8,10804.9,High,A
Perak,Sandy,Durian,309.0,3.6,9973.9,High,A
Perak,Silty,Tomato,273.3,20.6,20161.6,Low,A
Perak,Silty,Tomato,104.2,29.1,8579.2,Low,C
Perak,Silty,Tomato,173.6,3.2,11132.5,Medium,B
Perak,Silty,Tomato,157.6,31.4,9047.6,Medium,A
Perak,Silty,Tomato,133.0,35.7,8490.2,High,S
Perak,Silty,Tomato,240.4,35.1,5211.8,High,S
Perak,Silty,Lettuce,309.0,29.9,16814.1,Low,S
Perak,Silty,Lettuce,284.3,9.4,11996.7,Low,C
Perak,Silty,Lettuce,155.5,25.1,18103.1,Medium,S
Perak,Silty,Lettuce,145.0,15.2,20283.4,Medium,B
Perak,Silty,Lettuce,171.8,28.7,14789.5,High,S
Perak,Silty,Lettuce,110.6,38.8,11708.8,High,S
Perak,Silty,Chili,181.3,17.5,5184.3,Low,D
Perak,Silty,Chili,54.8,10.2,8210.6,Low,D
Perak,Silty,Chili,242.7,14.7,13198.4,Medium,B
Perak,Silty,Chili,235.5,5.3,3867.3,Medium,B
Perak,Silty,Chili,324.4,30.5,19044.2,High,S
Perak,Silty,Chili,152.0,17.2,4660.6,High,B
Perak,Silty,Corn,303.5,33.7,19529.3,Low,S
Perak,Silty,Corn,234.0,43.7,8476.7,Low,B
Perak,Silty,Corn,297.8,12.6,5100.2,Medium,A
Perak,Silty,Corn,57.9,11.7,15901.6,Medium,B
Perak,Silty,Corn,312.5,20.9,18230.5,High,S
Perak,Silty,Corn,139.0,43.5,19150.6,High,S
Perak,Silty,Paddy,181.7,25.9,21967.5,Low,B
Perak,Silty,Paddy,105.8,24.3,9992.3,Low,C
Perak,Silty,Paddy,320.7,18.6,7229.8,Medium,A
Perak,Silty,Paddy,159.2,36.5,10626.3,Medium,A
Perak,Silty,Paddy,327.7,12.1,12807.4,High,A
Perak,Silty,Paddy,258.0,15.8,18549.0,High,S
Perak,Silty,Papaya,288.7,26.9,3932.4,Low,B
Perak,Silty,Papaya,345.7,32.5,12707.2,Low,A
Perak,Silty,Papaya,297.9,11.8,8966.9,Medium,A
Perak,Silty,Papaya,342.9,37.3,6479.3,Medium,A
Perak,Silty,Papaya,301.0,21.8,10757.4,High,S
Perak,Silty,Papaya,69.4,44.8,2442.3,High,A
Perak,Silty,Durian,245.1,40.5,11532.5,Low,A
Perak,Silty,Durian,69.1,17.2,21094.7,Low,B
Perak,Silty,Durian,125.6,40.6,2551.5,Medium,B
Perak,Silty,Durian,179.2,34.9,4667.1,Medium,B
Perak,Silty,Durian,248.5,15.3,15944.1,High,S
Perak,Silty,Durian,119.8,36.3,12159.1,High,S
Perlis,Clay,Tomato,279.9,44.1,13737.4,Low,A
Perlis,Clay,Tomato,341.3,4.3,17089.3,Low,B
Perlis,Clay,Tomato,282.4,5.1,3272.6,Medium,C
Perlis,Clay,Tomato,98.4,10.4,21595.6,Medium,B
Perlis,Clay,Tomato,346.9,37.9,2589.8,High,S
Perlis,Clay,Tomato,268.6,16.3,3883.2,High,B
Perlis,Clay,Lettuce,260.3,31.5,18098.3,Low,A
Perlis,Clay,Lettuce,192.3,38.4,5659.8,Low,C
Perlis,Clay,Lettuce,103.2,20.5,7040.3,Medium,C
Perlis,Clay,Lettuce,128.2,10.6,9024.0,Medium,C
Perlis,Clay,Lettuce,74.5,21.4,3880.6,High,C
Perlis,Clay,Lettuce,313.8,4.6,13142.6,High,A
Perlis,Clay,Chili,78.6,2.1,21702.6,Low,D
Perlis,Clay,Chili,148.1,15.2,18000.8,Low,C
Perlis,Clay,Chili,162.5,5.0,5447.9,Medium,C
Perlis,Clay,Chili,199.5,25.0,21515.5,Medium,A
Perlis,Clay,Chili,255.0,8.7,9483.4,High,B
Perlis,Clay,Chili,182.2,38.4,17439.7,High,S
Perlis,Clay,Corn,294.3,21.1,14441.7,Low,A
Perlis,Clay,Corn,316.5,36.1,4405.7,Low,B
Perlis,Clay,Corn,330.5,6.6,15660.6,Medium,A
Perlis,Clay,Corn,100.2,6.3,5863.2,Medium,D
Perlis,Clay,Corn,234.0,16.5,11093.3,High,A
Perlis,Clay,Corn,299.5,35.7,20880.2,High,S
Perlis,Clay,Paddy,69.6,12.6,4827.6,Low,D
Perlis,Clay,Paddy,197.2,36.1,2831.8,Low,C
Perlis,Clay,Paddy,344.7,22.7,18872.0,Medium,S
Perlis,Clay,Paddy,276.4,27.4,18955.5,Medium,A
Perlis,Clay,Paddy,246.4,41.2,13259.9,High,S
Perlis,Clay,Paddy,206.5,34.5,14864.0,High,S
Perlis,Clay,Papaya,90.6,34.8,7859.2,Low,C
Perlis,Clay,Papaya,171.3,18.2,11809.3,Low,C
Perlis,Clay,Papaya,146.5,22.8,9776.2,Medium,B
Perlis,Clay,Papaya,285.9,14.3,15681.0,Medium,B
Perlis,Clay,Papaya,299.4,10.1,3783.7,High,A
Perlis,Clay,Papaya,274.4,26.6,5467.2,High,A
Perlis,Clay,Durian,64.4,3.2,21335.4,Low,C
Perlis,Clay,Durian,155.5,25.1,18474.9,Low,B
Perlis,Clay,Durian,180.1,23.9,18984.4,Medium,A
Perlis,Clay,Durian,254.3,3.9,6289.9,Medium,C
Perlis,Clay,Durian,105.7,11.5,8406.2,High,B
Perlis,Clay,Durian,198.6,26.6,14260.3,High,A
Perlis,Loam,Tomato,164.4,40.7,4326.6,Low,C
Perlis,Loam,Tomato,321.3,30.4,20304.9,Low,A
Perlis,Loam,Tomato,103.1,18.8,6567.4,Medium,B
Perlis,Loam,Tomato,170.6,8.7,13975.0,Medium,B
Perlis,Loam,Tomato,127.5,41.7,15607.9,High,S
Perlis,Loam,Tomato,320.6,15.3,20805.5,High,S
Perlis,Loam,Lettuce,324.1,19.6,2204.5,Low,C
Perlis,Loam,Lettuce,163.1,38.2,5789.9,Low,B
Perlis,Loam,Lettuce,126.0,2.4,15850.5,Medium,C
Perlis,Loam,Lettuce,280.1,7.5,15790.0,Medium,B
Perlis,Loam,Lettuce,84.3,8.8,17823.8,High,B
Perlis,Loam,Lettuce,211.1,9.2,16801.9,High,S
Perlis,Loam,Chili,264.5,31.9,7696.1,Low,B
Perlis,Loam,Chili,306.7,13.2,17219.8,Low,B
Perlis,Loam,Chili,315.7,10.7,3730.1,Medium,B
Perlis,Loam,Chili,110.2,24.3,2713.9,Medium,C
Perlis,Loam,Chili,83.4,3.6,9761.3,High,C
Perlis,Loam,Chili,258.1,4.9,10719.0,High,B
Perlis,Loam,Corn,271.5,21.0,17382.5,Low,A
Perlis,Loam,Corn,201.1,43.9,17371.0,Low,A
Perlis,Loam,Corn,63.1,2.6,5054.2,Medium,C
Perlis,Loam,Corn,125.2,9.5,11240.7,Medium,B
Perlis,Loam,Corn,66.9,18.3,20936.4,High,A
Perlis,Loam,Corn,117.6,29.0,8717.8,High,A
Perlis,Loam,Paddy,57.6,20.9,18868.4,Low,B
Perlis,Loam,Paddy,136.3,8.9,12942.5,Low,D
Perlis,Loam,Paddy,83.4,4.8,12360.9,Medium,D
Perlis,Loam,Paddy,266.1,33.1,8433.1,Medium,B
Perlis,Loam,Paddy,320.5,31.4,2118.0,High,A
Perlis,Loam,Paddy,67.5,18.7,13339.1,High,A
Perlis,Loam,Papaya,278.7,3.5,12911.7,Low,D
Perlis,Loam,Papaya,297.2,22.5,13429.8,Low,B
Perlis,Loam,Papaya,255.7,18.6,20204.8,Medium,A
Perlis,Loam,Papaya,197.2,12.8,21602.6,Medium,A
Perlis,Loam,Papaya,193.7,40.6,11084.5,High,S
Perlis,Loam,Papaya,117.2,14.3,16619.6,High,S
Perlis,Loam,Durian,166.5,13.1,5206.3,Low,C
Perlis,Loam,Durian,179.5,14.9,2851.1,Low,D
Perlis,Loam,Durian,313.9,38.6,21749.8,Medium,S
Perlis,Loam,Durian,237.9,10.9,10115.8,Medium,B
Perlis,Loam,Durian,188.2,21.4,21047.5,High,S
Perlis,Loam,Durian,151.3,30.6,4662.3,High,A
Perlis,Sandy,Tomato,123.8,32.6,13367.7,Low,B
Perlis,Sandy,Tomato,268.8,35.7,9268.3,Low,B
Perlis,Sandy,Tomato,308.7,36.1,9496.3,Medium,A
Perlis,Sandy,Tomato,167.8,22.2,12856.6,Medium,B
Perlis,Sandy,Tomato,321.4,43.1,19402.2,High,S
Perlis,Sandy,Tomato,109.8,16.5,19798.5,High,A
Perlis,Sandy,Lettuce,331.1,20.6,20864.0,Low,B
Perlis,Sandy,Lettuce,111.9,26.4,5446.8,Low,C
Perlis,Sandy,Lettuce,254.2,35.1,14824.8,Medium,A
Perlis,Sandy,Lettuce,290.3,8.5,8329.8,Medium,C
Perlis,Sandy,Lettuce,271.5,34.8,11733.7,High,S
Perlis,Sandy,Lettuce,279.0,24.8,14561.7,High,A
Perlis,Sandy,Chili,79.1,4.8,2429.3,Low,F
Perlis,Sandy,Chili,310.8,16.3,3798.9,Low,C
Perlis,Sandy,Chili,157.0,34.0,21159.1,Medium,A
Perlis,Sandy,Chili,69.8,28.8,8310.0,Medium,B
Perlis,Sandy,Chili,184.0,16.6,5504.4,High,B
Perlis,Sandy,Chili,290.7,8.9,19611.2,High,A
Perlis,Sandy,Corn,85.5,41.1,10193.6,Low,B
Perlis,Sandy,Corn,238.6,32.1,7624.7,Low,B
Perlis,Sandy,Corn,124.8,6.9,20908.0,Medium,B
Perlis,Sandy,Corn,79.1,3.7,19604.6,Medium,C
Perlis,Sandy,Corn,193.1,35.0,13723.5,High,S
Perlis,Sandy,Corn,158.7,21.0,13438.2,High,A
Perlis,Sandy,Paddy,56.0,23.1,15435.2,Low,C
Perlis,Sandy,Paddy,151.9,5.7,9399.4,Low,D
Perlis,Sandy,Paddy,237.2,31.1,20335.3,Medium,A
Perlis,Sandy,Paddy,330.5,43.3,5942.6,Medium,A
Perlis,Sandy,Paddy,137.7,36.1,17731.5,High,S
Perlis,Sandy,Paddy,345.1,23.3,14437.2,High,S
Perlis,Sandy,Papaya,347.5,17.7,7054.3,Low,C
Perlis,Sandy,Papaya,344.6,40.9,2468.9,Low,B
Perlis,Sandy,Papaya,100.1,29.9,16010.3,Medium,B
Perlis,Sandy,Papaya,348.8,16.5,7456.7,Medium,A
Perlis,Sandy,Papaya,247.0,30.4,8658.4,High,A
Perlis,Sandy,Papaya,311.6,41.8,2213.6,High,S
Perlis,Sandy,Durian,140.8,10.6,11402.4,Low,D
Perlis,Sandy,Durian,258.6,13.6,9502.8,Low,C
Perlis,Sandy,Durian,203.8,44.7,10490.3,Medium,A
Perlis,Sandy,Durian,89.7,16.9,7231.8,Medium,C
Perlis,Sandy,Durian,134.5,5.6,10997.5,High,B
Perlis,Sandy,Durian,291.6,41.3,19229.6,High,S
Perlis,Silty,Tomato,56.9,7.5,17241.3,Low,D
Perlis,Silty,Tomato,103.1,4.8,13438.2,Low,D
Perlis,Silty,Tomato,76.2,5.2,16462.1,Medium,B
Perlis,Silty,Tomato,152.3,41.1,3407.7,Medium,B
Perlis,Silty,Tomato,339.7,43.7,14620.1,High,S
Perlis,Silty,Tomato,249.5,28.3,3123.3,High,B
Perlis,Silty,Lettuce,325.4,41.8,5711.5,Low,A
Perlis,Silty,Lettuce,77.5,20.6,15712.0,Low,C
Perlis,Silty,Lettuce,265.1,18.6,14509.0,Medium,B
Perlis,Silty,Lettuce,295.3,32.5,11906.0,Medium,A
Perlis,Silty,Lettuce,190.8,33.5,13836.2,High,S
Perlis,Silty,Lettuce,182.8,23.8,3591.2,High,A
Perlis,Silty,Chili,129.0,39.8,13508.7,Low,B
Perlis,Silty,Chili,87.2,34.8,5764.0,Low,C
Perlis,Silty,Chili,276.9,11.8,9893.4,Medium,B
Perlis,Silty,Chili,139.0,19.7,14811.9,Medium,B
Perlis,Silty,Chili,125.3,16.8,6815.4,High,C
Perlis,Silty,Chili,317.2,31.4,7629.0,High,A
Perlis,Silty,Corn,68.5,23.2,20053.9,Low,C
Perlis,Silty,Corn,276.7,20.5,15480.7,Low,A
Perlis,Silty,Corn,183.8,44.0,15490.0,Medium,A
Perlis,Silty,Corn,281.4,41.3,15961.5,Medium,S
Perlis,Silty,Corn,337.8,26.5,16543.0,High,S
Perlis,Silty,Corn,157.4,36.9,9408.9,High,A
Perlis,Silty,Paddy,196.7,25.5,16899.4,Low,B
Perlis,Silty,Paddy,101.2,31.7,10194.6,Low,B
Perlis,Silty,Paddy,147.3,36.2,20904.3,Medium,A
Perlis,Silty,Paddy,310.6,22.0,5053.7,Medium,B
Perlis,Silty,Paddy,165.7,42.8,19467.2,High,S
Perlis,Silty,Paddy,164.4,39.4,4987.7,High,A
Perlis,Silty,Papaya,180.3,37.1,20107.2,Low,B
Perlis,Silty,Papaya,333.8,11.3,2327.8,Low,C
Perlis,Silty,Papaya,131.3,10.5,11946.4,Medium,C
Perlis,Silty,Papaya,298.9,38.7,7553.4,Medium,A
Perlis,Silty,Papaya,232.0,23.5,10702.2,High,S
Perlis,Silty,Papaya,196.2,30.6,9067.4,High,A
Perlis,Silty,Durian,335.9,32.4,14156.4,Low,B
Perlis,Silty,Durian,205.6,23.3,6328.1,Low,C
Perlis,Silty,Durian,337.1,29.2,8771.6,Medium,A
Perlis,Silty,Durian,235.5,28.3,13982.3,Medium,A
Perlis,Silty,Durian,152.3,18.1,15770.3,High,A
Perlis,Silty,Durian,219.6,22.4,2354.2,High,B
'Pulau Pinang',Clay,Tomato,123.8,42.6,15765.6,Low,A
'Pulau Pinang',Clay,Tomato,320.8,29.3,20036.8,Low,A
'Pulau Pinang',Clay,Tomato,134.2,16.7,17876.4,Medium,A
'Pulau Pinang',Clay,Tomato,320.6,43.5,17631.9,Medium,S
'Pulau Pinang',Clay,Tomato,323.4,32.4,14187.7,High,S
'Pulau Pinang',Clay,Tomato,124.7,26.2,19811.1,High,S
'Pulau Pinang',Clay,Lettuce,314.2,18.5,4967.1,Low,C
'Pulau Pinang',Clay,Lettuce,208.8,21.9,20008.6,Low,A
'Pulau Pinang',Clay,Lettuce,268.3,4.9,9791.5,Medium,C
'Pulau Pinang',Clay,Lettuce,281.0,32.6,9275.6,Medium,A
'Pulau Pinang',Clay,Lettuce,192.1,11.6,2061.1,High,B
'Pulau Pinang',Clay,Lettuce,236.2,26.2,17673.7,High,S
'Pulau Pinang',Clay,Chili,195.4,15.5,19664.3,Low,B
'Pulau Pinang',Clay,Chili,293.2,10.1,20474.2,Low,B
'Pulau Pinang',Clay,Chili,138.7,4.6,19695.4,Medium,B
'Pulau Pinang',Clay,Chili,201.2,12.7,9520.2,Medium,B
'Pulau Pinang',Clay,Chili,305.8,14.8,6084.8,High,A
'Pulau Pinang',Clay,Chili,58.6,29.7,10428.5,High,A
'Pulau Pinang',Clay,Corn,282.7,44.7,10933.7,Low,A
'Pulau Pinang',Clay,Corn,97.1,21.1,8281.7,Low,C
'Pulau Pinang',Clay,Corn,186.8,10.5,14130.8,Medium,B
'Pulau Pinang',Clay,Corn,225.9,15.9,2339.1,Medium,C
'Pulau Pinang',Clay,Corn,148.0,22.5,4835.1,High,A
'Pulau Pinang',Clay,Corn,162.5,3.1,10685.2,High,B
'Pulau Pinang',Clay,Paddy,103.4,28.4,17210.6,Low,B
'Pulau Pinang',Clay,Paddy,147.2,34.5,2787.6,Low,C
'Pulau Pinang',Clay,Paddy,266.8,32.7,11933.5,Medium,S
'Pulau Pinang',Clay,Paddy,92.0,6.4,5267.6,Medium,C
'Pulau Pinang',Clay,Paddy,77.6,17.5,9141.6,High,B
'Pulau Pinang',Clay,Paddy,153.1,5.0,10011.2,High,C
'Pulau Pinang',Clay,Papaya,174.9,36.0,15891.7,Low,A
'Pulau Pinang',Clay,Papaya,76.8,10.9,5181.2,Low,D
'Pulau Pinang',Clay,Papaya,310.6,11.8,3130.3,Medium,B
'Pulau Pinang',Clay,Papaya,57.3,29.6,15945.8,Medium,B
'Pulau Pinang',Clay,Papaya,62.7,34.6,20999.3,High,S
'Pulau Pinang',Clay,Papaya,91.3,15.7,9750.5,High,B
'Pulau Pinang',Clay,Durian,168.7,23.9,7792.8,Low,C
'Pulau Pinang',Clay,Durian,264.4,19.8,3359.2,Low,C
'Pulau Pinang',Clay,Durian,60.8,11.9,11829.3,Medium,C
'Pulau Pinang',Clay,Durian,74.2,39.9,12183.0,Medium,A
'Pulau Pinang',Clay,Durian,169.2,8.5,2147.0,High,B
'Pulau Pinang',Clay,Durian,236.8,13.4,9486.0,High,A
'Pulau Pinang',Loam,Tomato,300.4,34.4,7125.6,Low,B
'Pulau Pinang',Loam,Tomato,319.4,18.9,15009.3,Low,B
'Pulau Pinang',Loam,Tomato,183.7,43.6,15436.9,Medium,S
'Pulau Pinang',Loam,Tomato,111.4,6.8,9749.0,Medium,C
'Pulau Pinang',Loam,Tomato,329.9,10.8,17195.2,High,S
'Pulau Pinang',Loam,Tomato,139.6,31.7,6286.8,High,A
'Pulau Pinang',Loam,Lettuce,141.0,21.9,14956.6,Low,C
'Pulau Pinang',Loam,Lettuce,317.1,38.3,6336.1,Low,B
'Pulau Pinang',Loam,Lettuce,53.7,37.7,19207.2,Medium,A
'Pulau Pinang',Loam,Lettuce,334.0,18.7,8547.2,Medium,A
'Pulau Pinang',Loam,Lettuce,230.5,9.1,11833.6,High,A
'Pulau Pinang',Loam,Lettuce,135.6,44.4,19147.2,High,S
'Pulau Pinang',Loam,Chili,234.9,40.0,19053.6,Low,S
'Pulau Pinang',Loam,Chili,307.1,42.7,20603.2,Low,S
'Pulau Pinang',Loam,Chili,164.4,26.4,5189.7,Medium,C
'Pulau Pinang',Loam,Chili,114.6,10.2,10463.3,Medium,B
'Pulau Pinang',Loam,Chili,72.8,20.0,2447.9,High,B
'Pulau Pinang',Loam,Chili,319.6,15.0,7254.5,High,S
'Pulau Pinang',Loam,Corn,316.2,36.4,6093.3,Low,A
'Pulau Pinang',Loam,Corn,273.3,31.3,2607.4,Low,B
'Pulau Pinang',Loam,Corn,193.0,2.6,3721.9,Medium,C
'Pulau Pinang',Loam,Corn,310.9,26.9,13148.9,Medium,A
'Pulau Pinang',Loam,Corn,260.9,22.6,16628.7,High,S
'Pulau Pinang',Loam,Corn,69.5,31.2,2598.0,High,B
'Pulau Pinang',Loam,Paddy,299.1,19.7,21458.1,Low,A
'Pulau Pinang',Loam,Paddy,63.2,4.7,17390.7,Low,D
'Pulau Pinang',Loam,Paddy,134.5,22.6,18038.8,Medium,B
'Pulau Pinang',Loam,Paddy,131.6,39.5,6696.4,Medium,B
'Pulau Pinang',Loam,Paddy,50.6,30.0,19470.4,High,S
'Pulau Pinang',Loam,Paddy,180.6,42.9,11770.6,High,S
'Pulau Pinang',Loam,Papaya,304.5,4.0,9280.7,Low,C
'Pulau Pinang',Loam,Papaya,186.9,22.3,5277.9,Low,C
'Pulau Pinang',Loam,Papaya,161.4,25.7,4913.9,Medium,B
'Pulau Pinang',Loam,Papaya,154.0,9.5,10035.6,Medium,B
'Pulau Pinang',Loam,Papaya,154.2,14.6,18284.5,High,S
'Pulau Pinang',Loam,Papaya,198.4,25.3,9206.6,High,A
'Pulau Pinang',Loam,Durian,230.6,40.0,8656.1,Low,B
'Pulau Pinang',Loam,Durian,190.0,34.4,19236.0,Low,B
'Pulau Pinang',Loam,Durian,62.8,23.8,19194.2,Medium,A
'Pulau Pinang',Loam,Durian,229.6,25.2,18640.3,Medium,A
'Pulau Pinang',Loam,Durian,289.6,8.0,18325.2,High,A
'Pulau Pinang',Loam,Durian,258.0,5.5,10379.5,High,B
'Pulau Pinang',Sandy,Tomato,200.4,3.8,4076.3,Low,F
'Pulau Pinang',Sandy,Tomato,330.4,30.6,5294.0,Low,B
'Pulau Pinang',Sandy,Tomato,262.9,16.4,4338.4,Medium,B
'Pulau Pinang',Sandy,Tomato,289.1,25.6,9899.2,Medium,A
'Pulau Pinang',Sandy,Tomato,167.8,26.8,16996.5,High,S
'Pulau Pinang',Sandy,Tomato,346.4,11.7,14878.0,High,A
'Pulau Pinang',Sandy,Lettuce,258.2,34.4,16324.0,Low,A
'Pulau Pinang',Sandy,Lettuce,340.8,36.4,11904.1,Low,A
'Pulau Pinang',Sandy,Lettuce,258.5,15.2,17116.0,Medium,A
'Pulau Pinang',Sandy,Lettuce,112.8,29.4,21031.0,Medium,A
'Pulau Pinang',Sandy,Lettuce,54.9,14.7,6141.7,High,B
'Pulau Pinang',Sandy,Lettuce,254.1,4.9,11052.0,High,B
'Pulau Pinang',Sandy,Chili,333.5,30.4,2211.4,Low,B
'Pulau Pinang',Sandy,Chili,153.0,18.1,8075.7,Low,C
'Pulau Pinang',Sandy,Chili,325.9,29.3,13866.7,Medium,S
'Pulau Pinang',Sandy,Chili,343.1,23.5,9029.9,Medium,B
'Pulau Pinang',Sandy,Chili,192.1,36.3,17058.4,High,S
'Pulau Pinang',Sandy,Chili,176.8,27.2,19612.7,High,S
'Pulau Pinang',Sandy,Corn,255.5,44.8,9599.3,Low,A
'Pulau Pinang',Sandy,Corn,277.7,5.7,7043.1,Low,D
'Pulau Pinang',Sandy,Corn,123.6,37.7,14626.0,Medium,B
'Pulau Pinang',Sandy,Corn,164.0,16.5,14072.2,Medium,B
'Pulau Pinang',Sandy,Corn,146.9,25.8,16080.8,High,A
'Pulau Pinang',Sandy,Corn,234.1,6.1,15676.5,High,A
'Pulau Pinang',Sandy,Paddy,252.6,3.2,12125.9,Low,D
'Pulau Pinang',Sandy,Paddy,104.4,13.8,13301.0,Low,C
'Pulau Pinang',Sandy,Paddy,210.7,33.1,7064.1,Medium,B
'Pulau Pinang',Sandy,Paddy,205.0,9.5,11034.5,Medium,B
'Pulau Pinang',Sandy,Paddy,61.9,27.8,10534.6,High,A
'Pulau Pinang',Sandy,Paddy,340.6,5.3,11642.9,High,A
'Pulau Pinang',Sandy,Papaya,166.2,34.0,15077.4,Low,B
'Pulau Pinang',Sandy,Papaya,163.0,15.0,6468.5,Low,C
'Pulau Pinang',Sandy,Papaya,225.1,23.2,16276.6,Medium,A
'Pulau Pinang',Sandy,Papaya,334.4,7.0,5288.7,Medium,C
'Pulau Pinang',Sandy,Papaya,343.6,28.0,2473.6,High,A
'Pulau Pinang',Sandy,Papaya,288.3,20.5,16168.2,High,S
'Pulau Pinang',Sandy,Durian,160.5,25.4,10372.5,Low,C
'Pulau Pinang',Sandy,Durian,180.9,32.2,3338.8,Low,C
'Pulau Pinang',Sandy,Durian,313.3,30.6,11492.5,Medium,A
'Pulau Pinang',Sandy,Durian,123.0,41.9,4750.5,Medium,B
'Pulau Pinang',Sandy,Durian,75.9,10.0,5930.3,High,B
'Pulau Pinang',Sandy,Durian,213.8,26.0,11557.6,High,S
'Pulau Pinang',Silty,Tomato,246.9,27.0,4317.0,Low,C
'Pulau Pinang',Silty,Tomato,110.7,14.9,16932.8,Low,C
'Pulau Pinang',Silty,Tomato,161.6,23.9,2243.3,Medium,B
'Pulau Pinang',Silty,Tomato,129.8,24.8,8066.9,Medium,B
'Pulau Pinang',Silty,Tomato,145.9,12.5,11607.8,High,B
'Pulau Pinang',Silty,Tomato,249.2,22.6,6282.4,High,A
'Pulau Pinang',Silty,Lettuce,215.9,29.0,19173.9,Low,B
'Pulau Pinang',Silty,Lettuce,250.1,38.9,4908.1,Low,B
'Pulau Pinang',Silty,Lettuce,193.3,44.6,3451.8,Medium,B
'Pulau Pinang',Silty,Lettuce,238.1,19.8,14512.5,Medium,A
'Pulau Pinang',Silty,Lettuce,298.4,19.5,17047.4,High,S
'Pulau Pinang',Silty,Lettuce,146.1,19.0,5852.1,High,A
'Pulau Pinang',Silty,Chili,162.1,21.3,18727.4,Low,B
'Pulau Pinang',Silty,Chili,322.3,22.6,20987.8,Low,A
'Pulau Pinang',Silty,Chili,172.0,39.5,14706.9,Medium,A
'Pulau Pinang',Silty,Chili,206.4,23.4,3501.1,Medium,B
'Pulau Pinang',Silty,Chili,175.2,26.2,16089.5,High,S
'Pulau Pinang',Silty,Chili,281.9,3.7,7547.8,High,B
'Pulau Pinang',Silty,Corn,245.1,44.4,8829.7,Low,A
'Pulau Pinang',Silty,Corn,231.6,41.5,19107.6,Low,A
'Pulau Pinang',Silty,Corn,196.3,34.6,18790.2,Medium,S
'Pulau Pinang',Silty,Corn,218.1,31.3,13986.8,Medium,S
'Pulau Pinang',Silty,Corn,91.2,16.5,15828.5,High,S
'Pulau Pinang',Silty,Corn,209.8,28.5,3258.7,High,A
'Pulau Pinang',Silty,Paddy,330.2,39.6,13888.7,Low,A
'Pulau Pinang',Silty,Paddy,328.0,15.9,6788.3,Low,C
'Pulau Pinang',Silty,Paddy,341.7,10.2,8700.0,Medium,A
'Pulau Pinang',Silty,Paddy,133.6,27.7,15393.7,Medium,B
'Pulau Pinang',Silty,Paddy,233.9,35.8,18044.9,High,S
'Pulau Pinang',Silty,Paddy,107.0,31.5,16252.4,High,S
'Pulau Pinang',Silty,Papaya,111.3,21.9,12402.3,Low,C
'Pulau Pinang',Silty,Papaya,266.8,14.5,6940.5,Low,C
'Pulau Pinang',Silty,Papaya,240.0,16.5,19745.5,Medium,S
'Pulau Pinang',Silty,Papaya,162.5,18.8,16340.8,Medium,A
'Pulau Pinang',Silty,Papaya,187.7,16.7,7094.5,High,B
'Pulau Pinang',Silty,Papaya,87.3,18.2,13013.7,High,A
'Pulau Pinang',Silty,Durian,70.0,36.9,7096.2,Low,C
'Pulau Pinang',Silty,Durian,330.4,25.7,18423.2,Low,A
'Pulau Pinang',Silty,Durian,176.1,13.4,21631.6,Medium,A
'Pulau Pinang',Silty,Durian,196.9,6.6,10743.4,Medium,C
'Pulau Pinang',Silty,Durian,91.9,7.3,17202.5,High,A
'Pulau Pinang',Silty,Durian,62.3,5.0,4149.2,High,C
Sabah,Clay,Tomato,88.2,6.1,16860.5,Low,C
Sabah,Clay,Tomato,62.0,30.4,3197.6,Low,D
Sabah,Clay,Tomato,343.1,32.9,7683.8,Medium,A
Sabah,Clay,Tomato,116.1,28.0,17034.5,Medium,S
Sabah,Clay,Tomato,156.1,12.2,2459.1,High,B
Sabah,Clay,Tomato,278.7,9.4,21328.0,High,S
Sabah,Clay,Lettuce,212.5,2.7,5207.9,Low,D
Sabah,Clay,Lettuce,234.2,43.9,18191.0,Low,A
Sabah,Clay,Lettuce,123.9,19.5,6840.5,Medium,B
Sabah,Clay,Lettuce,317.6,41.5,7589.4,Medium,A
Sabah,Clay,Lettuce,251.3,20.7,19217.9,High,S
Sabah,Clay,Lettuce,183.8,12.0,18945.6,High,S
Sabah,Clay,Chili,183.2,8.5,19762.4,Low,B
Sabah,Clay,Chili,275.2,3.0,17301.1,Low,C
Sabah,Clay,Chili,252.0,20.8,19502.9,Medium,A
Sabah,Clay,Chili,56.2,23.8,9758.0,Medium,B
Sabah,Clay,Chili,111.6,8.2,3547.1,High,B
Sabah,Clay,Chili,255.0,9.2,10080.1,High,A
Sabah,Clay,Corn,156.0,13.8,16298.7,Low,B
Sabah,Clay,Corn,163.8,39.7,21213.1,Low,S
Sabah,Clay,Corn,219.0,29.8,3293.9,Medium,A
Sabah,Clay,Corn,56.6,26.6,9190.4,Medium,C
Sabah,Clay,Corn,180.9,21.1,10482.8,High,A
Sabah,Clay,Corn,154.5,13.6,20232.0,High,A
Sabah,Clay,Paddy,97.4,11.4,13709.9,Low,C
Sabah,Clay,Paddy,209.3,10.4,2725.9,Low,D
Sabah,Clay,Paddy,64.4,11.8,16142.1,Medium,C
Sabah,Clay,Paddy,234.6,25.8,7007.8,Medium,A
Sabah,Clay,Paddy,126.5,8.4,4832.7,High,B
Sabah,Clay,Paddy,311.3,10.0,10189.3,High,A
Sabah,Clay,Papaya,70.0,39.5,14418.9,Low,B
Sabah,Clay,Papaya,284.9,39.5,19336.1,Low,S
Sabah,Clay,Papaya,136.5,22.2,10465.3,Medium,B
Sabah,Clay,Papaya,55.2,43.3,14052.7,Medium,A
Sabah,Clay,Papaya,281.9,13.6,17662.9,High,S
Sabah,Clay,Papaya,283.7,25.8,9378.6,High,A
Sabah,Clay,Durian,210.1,10.0,17738.2,Low,B
Sabah,Clay,Durian,101.5,13.7,18266.1,Low,B
Sabah,Clay,Durian,318.5,18.9,5340.0,Medium,B
Sabah,Clay,Durian,304.0,12.4,14179.4,Medium,A
Sabah,Clay,Durian,284.9,21.9,11098.9,High,S
Sabah,Clay,Durian,264.0,9.0,14120.2,High,A
Sabah,Loam,Tomato,344.9,7.8,7744.0,Low,B
Sabah,Loam,Tomato,197.0,34.4,13006.3,Low,A
Sabah,Loam,Tomato,316.6,22.1,14947.1,Medium,S
Sabah,Loam,Tomato,285.9,26.8,18752.6,Medium,S
Sabah,Loam,Tomato,125.4,42.3,5337.9,High,S
Sabah,Loam,Tomato,87.9,3.6,3468.3,High,B
Sabah,Loam,Lettuce,302.6,7.0,20083.3,Low,B
Sabah,Loam,Lettuce,139.9,3.0,11744.4,Low,C
Sabah,Loam,Lettuce,114.7,35.3,17007.0,Medium,A
Sabah,Loam,Lettuce,227.1,34.6,4796.9,Medium,A
Sabah,Loam,Lettuce,168.9,8.1,20010.1,High,S
Sabah,Loam,Lettuce,125.9,19.2,16257.8,High,A
Sabah,Loam,Chili,111.4,7.6,21192.4,Low,C
Sabah,Loam,Chili,93.7,29.5,4025.7,Low,C
Sabah,Loam,Chili,155.2,41.1,19740.9,Medium,S
Sabah,Loam,Chili,73.4,14.6,18421.9,Medium,A
Sabah,Loam,Chili,62.2,44.2,18943.5,High,S
Sabah,Loam,Chili,149.4,15.3,12134.4,High,B
Sabah,Loam,Corn,80.4,34.0,13231.8,Low,C
Sabah,Loam,Corn,202.9,29.1,9425.3,Low,B
Sabah,Loam,Corn,150.2,28.4,8938.5,Medium,B
Sabah,Loam,Corn,160.4,36.5,13712.4,Medium,S
Sabah,Loam,Corn,277.5,20.6,12279.4,High,S
Sabah,Loam,Corn,214.4,34.2,12119.0,High,S
Sabah,Loam,Paddy,96.0,37.5,8603.0,Low,B
Sabah,Loam,Paddy,269.4,29.3,4879.0,Low,B
Sabah,Loam,Paddy,108.9,28.5,7515.2,Medium,B
Sabah,Loam,Paddy,63.2,2.5,4658.8,Medium,D
Sabah,Loam,Paddy,108.1,36.4,19663.3,High,S
Sabah,Loam,Paddy,220.5,44.6,6212.3,High,S
Sabah,Loam,Papaya,99.0,3.6,16544.8,Low,C
Sabah,Loam,Papaya,115.7,41.4,5312.1,Low,B
Sabah,Loam,Papaya,84.3,30.8,18233.8,Medium,A
Sabah,Loam,Papaya,268.4,18.0,11378.5,Medium,S
Sabah,Loam,Papaya,223.1,25.6,20026.5,High,S
Sabah,Loam,Papaya,239.5,16.0,5112.0,High,A
Sabah,Loam,Durian,265.0,24.4,7579.3,Low,B
Sabah,Loam,Durian,319.0,11.7,2444.5,Low,C
Sabah,Loam,Durian,148.4,23.9,11977.5,Medium,A
Sabah,Loam,Durian,171.4,42.9,8006.8,Medium,S
Sabah,Loam,Durian,81.9,8.4,6472.5,High,B
Sabah,Loam,Durian,314.2,12.7,20103.5,High,S
Sabah,Sandy,Tomato,259.2,23.8,10252.9,Low,B
Sabah,Sandy,Tomato,220.0,14.9,6849.9,Low,C
Sabah,Sandy,Tomato,334.5,30.5,17499.3,Medium,S
Sabah,Sandy,Tomato,67.1,19.5,10643.4,Medium,B
Sabah,Sandy,Tomato,343.5,16.4,9407.6,High,A
Sabah,Sandy,Tomato,196.0,44.9,20556.7,High,S
Sabah,Sandy,Lettuce,114.2,20.5,6702.2,Low,D
Sabah,Sandy,Lettuce,291.4,16.5,13959.6,Low,B
Sabah,Sandy,Lettuce,306.0,6.3,3646.2,Medium,B
Sabah,Sandy,Lettuce,95.0,20.4,19931.6,Medium,A
Sabah,Sandy,Lettuce,288.1,32.0,5037.8,High,A
Sabah,Sandy,Lettuce,191.4,3.4,7828.5,High,A
Sabah,Sandy,Chili,253.6,41.5,15999.7,Low,S
Sabah,Sandy,Chili,76.3,9.1,8195.3,Low,D
Sabah,Sandy,Chili,348.9,5.5,2790.3,Medium,C
Sabah,Sandy,Chili,326.8,36.0,19941.1,Medium,S
Sabah,Sandy,Chili,197.1,13.5,7828.6,High,A
Sabah,Sandy,Chili,71.5,28.3,4772.3,High,B
Sabah,Sandy,Corn,305.7,8.8,17521.5,Low,B
Sabah,Sandy,Corn,198.9,11.6,7673.9,Low,C
Sabah,Sandy,Corn,151.6,9.0,11453.2,Medium,B
Sabah,Sandy,Corn,335.5,15.2,15069.8,Medium,S
Sabah,Sandy,Corn,175.4,42.0,17885.2,High,S
Sabah,Sandy,Corn,249.9,11.1,11225.7,High,A
Sabah,Sandy,Paddy,61.0,4.5,19502.8,Low,C
Sabah,Sandy,Paddy,349.5,7.4,16455.4,Low,B
Sabah,Sandy,Paddy,149.8,15.8,6785.1,Medium,B
Sabah,Sandy,Paddy,173.0,42.0,15365.4,Medium,S
Sabah,Sandy,Paddy,268.8,15.0,16182.2,High,S
Sabah,Sandy,Paddy,246.9,17.7,9815.9,High,A
Sabah,Sandy,Papaya,64.7,38.2,18072.5,Low,B
Sabah,Sandy,Papaya,293.8,21.9,21331.1,Low,A
Sabah,Sandy,Papaya,308.8,21.3,18315.6,Medium,S
Sabah,Sandy,Papaya,262.2,30.3,21161.3,Medium,S
Sabah,Sandy,Papaya,310.4,9.9,19383.5,High,S
Sabah,Sandy,Papaya,125.2,6.0,19510.4,High,A
Sabah,Sandy,Durian,62.6,8.0,12255.7,Low,D
Sabah,Sandy,Durian,133.4,10.7,5610.3,Low,D
Sabah,Sandy,Durian,52.8,17.5,8859.3,Medium,B
Sabah,Sandy,Durian,151.2,6.5,17431.4,Medium,A
Sabah,Sandy,Durian,110.5,8.4,15607.1,High,A
Sabah,Sandy,Durian,273.2,13.8,9813.8,High,A
Sabah,Silty,Tomato,227.1,41.8,5933.2,Low,A
Sabah,Silty,Tomato,269.4,3.7,21282.9,Low,B
Sabah,Silty,Tomato,137.1,44.9,11128.7,Medium,A
Sabah,Silty,Tomato,55.4,27.3,21301.7,Medium,A
Sabah,Silty,Tomato,298.9,19.9,11270.9,High,S
Sabah,Silty,Tomato,221.6,41.7,18696.0,High,S
Sabah,Silty,Lettuce,129.4,40.3,19043.3,Low,S
Sabah,Silty,Lettuce,250.5,26.9,9896.3,Low,C
Sabah,Silty,Lettuce,118.8,11.5,18430.1,Medium,B
Sabah,Silty,Lettuce,50.7,4.1,3522.1,Medium,C
Sabah,Silty,Lettuce,210.6,40.7,20798.3,High,S
Sabah,Silty,Lettuce,310.6,33.5,17335.6,High,S
Sabah,Silty,Chili,280.7,30.5,11932.7,Low,A
Sabah,Silty,Chili,210.2,25.8,17593.5,Low,A
Sabah,Silty,Chili,327.7,18.7,16514.4,Medium,A
Sabah,Silty,Chili,246.8,2.6,10590.0,Medium,B
Sabah,Silty,Chili,123.7,22.6,3989.2,High,A
Sabah,Silty,Chili,269.3,9.3,7846.3,High,A
Sabah,Silty,Corn,98.6,20.3,16583.2,Low,B
Sabah,Silty,Corn,279.5,14.4,21957.7,Low,A
Sabah,Silty,Corn,241.7,5.3,5111.4,Medium,C
Sabah,Silty,Corn,331.1,43.0,3319.6,Medium,S
Sabah,Silty,Corn,277.5,13.6,5579.4,High,A
Sabah,Silty,Corn,151.3,23.5,18703.8,High,S
Sabah,Silty,Paddy,203.2,22.7,14287.3,Low,A
Sabah,Silty,Paddy,156.9,6.0,5528.0,Low,C
Sabah,Silty,Paddy,213.6,12.8,2364.6,Medium,B
Sabah,Silty,Paddy,291.3,36.1,3728.5,Medium,B
Sabah,Silty,Paddy,93.7,8.9,18304.4,High,A
Sabah,Silty,Paddy,193.6,41.8,14631.4,High,S
Sabah,Silty,Papaya,306.1,36.1,10648.0,Low,A
Sabah,Silty,Papaya,282.8,19.3,5350.5,Low,B
Sabah,Silty,Papaya,195.0,27.2,15947.1,Medium,S
Sabah,Silty,Papaya,273.4,37.9,20675.9,Medium,S
Sabah,Silty,Papaya,217.2,21.7,8444.3,High,A
Sabah,Silty,Papaya,320.0,3.6,5761.6,High,A
Sabah,Silty,Durian,55.1,30.6,9450.7,Low,C
Sabah,Silty,Durian,274.9,2.3,8303.4,Low,C
Sabah,Silty,Durian,90.2,6.1,12410.3,Medium,B
Sabah,Silty,Durian,227.9,22.4,13071.7,Medium,A
Sabah,Silty,Durian,278.5,7.1,18216.6,High,S
Sabah,Silty,Durian,241.4,12.6,12741.6,High,A
Sarawak,Clay,Tomato,61.7,6.6,20781.0,Low,C
Sarawak,Clay,Tomato,349.5,31.9,18313.9,Low,S
Sarawak,Clay,Tomato,134.2,38.5,21626.2,Medium,S
Sarawak,Clay,Tomato,159.1,23.4,16772.6,Medium,A
Sarawak,Clay,Tomato,57.8,14.3,5695.5,High,C
Sarawak,Clay,Tomato,91.2,24.6,13990.9,High,A
Sarawak,Clay,Lettuce,84.0,43.9,17360.0,Low,A
Sarawak,Clay,Lettuce,87.1,26.8,13644.6,Low,C
Sarawak,Clay,Lettuce,64.7,15.4,17212.7,Medium,A
Sarawak,Clay,Lettuce,323.9,5.4,16256.3,Medium,A
Sarawak,Clay,Lettuce,311.1,25.5,20126.4,High,S
Sarawak,Clay,Lettuce,80.1,19.4,20615.7,High,A
Sarawak,Clay,Chili,313.4,6.0,8665.3,Low,B
Sarawak,Clay,Chili,91.1,6.1,20893.9,Low,C
Sarawak,Clay,Chili,317.4,3.8,18190.0,Medium,A
Sarawak,Clay,Chili,82.1,8.8,20793.1,Medium,A
Sarawak,Clay,Chili,124.3,16.4,5702.6,High,A
Sarawak,Clay,Chili,260.2,6.5,18245.0,High,S
Sarawak,Clay,Corn,268.6,7.4,16757.2,Low,B
Sarawak,Clay,Corn,254.7,12.3,10158.2,Low,B
Sarawak,Clay,Corn,312.5,26.8,16597.0,Medium,S
Sarawak,Clay,Corn,197.8,12.2,10594.5,Medium,B
Sarawak,Clay,Corn,166.5,37.5,7854.1,High,A
Sarawak,Clay,Corn,342.1,19.7,13566.6,High,S
Sarawak,Clay,Paddy,234.9,40.3,16138.1,Low,A
Sarawak,Clay,Paddy,231.6,2.1,4292.2,Low,D
Sarawak,Clay,Paddy,274.0,31.7,13532.3,Medium,S
Sarawak,Clay,Paddy,224.1,43.6,6975.6,Medium,S
Sarawak,Clay,Paddy,119.3,12.7,2931.3,High,C
Sarawak,Clay,Paddy,168.4,43.5,7531.0,High,A
Sarawak,Clay,Papaya,50.8,11.0,4215.5,Low,D
Sarawak,Clay,Papaya,174.0,16.7,10941.5,Low,C
Sarawak,Clay,Papaya,244.4,7.3,9375.1,Medium,A
Sarawak,Clay,Papaya,163.6,24.3,7501.3,Medium,B
Sarawak,Clay,Papaya,307.3,8.3,9784.2,High,A
Sarawak,Clay,Papaya,249.8,42.7,6855.4,High,S
Sarawak,Clay,Durian,132.2,4.1,2061.1,Low,D
Sarawak,Clay,Durian,68.4,40.2,3191.8,Low,C
Sarawak,Clay,Durian,136.7,19.8,19626.1,Medium,B
Sarawak,Clay,Durian,133.8,20.3,2275.4,Medium,B
Sarawak,Clay,Durian,208.9,27.2,8956.9,High,S
Sarawak,Clay,Durian,184.8,31.6,7512.3,High,A
Sarawak,Loam,Tomato,167.2,8.9,6411.3,Low,C
Sarawak,Loam,Tomato,55.1,12.1,11718.1,Low,D
Sarawak,Loam,Tomato,334.6,23.9,20679.5,Medium,S
Sarawak,Loam,Tomato,266.4,24.4,15798.2,Medium,A
Sarawak,Loam,Tomato,247.5,36.4,16928.1,High,S
Sarawak,Loam,Tomato,220.1,40.0,6824.5,High,S
Sarawak,Loam,Lettuce,292.9,34.6,15368.9,Low,A
Sarawak,Loam,Lettuce,234.1,36.4,12598.4,Low,B
Sarawak,Loam,Lettuce,199.1,24.7,4981.9,Medium,B
Sarawak,Loam,Lettuce,280.5,35.1,10394.5,Medium,A
Sarawak,Loam,Lettuce,194.3,10.1,16652.4,High,S
Sarawak,Loam,Lettuce,177.5,31.9,7438.8,High,A
Sarawak,Loam,Chili,170.6,38.2,14031.4,Low,A
Sarawak,Loam,Chili,78.8,22.3,5925.4,Low,D
Sarawak,Loam,Chili,63.7,16.5,11427.7,Medium,C
Sarawak,Loam,Chili,150.0,11.8,21150.0,Medium,B
Sarawak,Loam,Chili,72.9,26.3,4739.9,High,B
Sarawak,Loam,Chili,63.2,22.1,12699.6,High,A
Sarawak,Loam,Corn,80.8,44.6,12971.4,Low,A
Sarawak,Loam,Corn,116.2,11.2,9417.5,Low,D
Sarawak,Loam,Corn,53.5,27.3,4405.5,Medium,C
Sarawak,Loam,Corn,226.6,21.3,6181.7,Medium,B
Sarawak,Loam,Corn,121.0,7.1,18108.3,High,S
Sarawak,Loam,Corn,211.1,29.1,17218.2,High,S
Sarawak,Loam,Paddy,256.7,25.3,15145.9,Low,A
Sarawak,Loam,Paddy,51.9,38.2,18341.3,Low,B
Sarawak,Loam,Paddy,173.5,16.2,3774.2,Medium,B
Sarawak,Loam,Paddy,327.4,13.9,10542.1,Medium,A
Sarawak,Loam,Paddy,157.1,21.5,15918.8,High,A
Sarawak,Loam,Paddy,79.3,29.0,2427.2,High,B
Sarawak,Loam,Papaya,101.6,8.7,16749.5,Low,B
Sarawak,Loam,Papaya,108.8,11.0,4652.6,Low,D
Sarawak,Loam,Papaya,248.5,11.7,4690.3,Medium,C
Sarawak,Loam,Papaya,323.7,10.8,14542.6,Medium,S
Sarawak,Loam,Papaya,139.9,31.5,5078.6,High,A
Sarawak,Loam,Papaya,320.3,22.4,2152.5,High,A
Sarawak,Loam,Durian,209.9,31.4,19858.0,Low,A
Sarawak,Loam,Durian,279.3,11.1,5074.8,Low,C
Sarawak,Loam,Durian,118.8,36.9,7322.8,Medium,A
Sarawak,Loam,Durian,216.5,31.1,20999.3,Medium,S
Sarawak,Loam,Durian,319.7,41.4,21688.2,High,S
Sarawak,Loam,Durian,97.2,44.9,12657.0,High,S
Sarawak,Sandy,Tomato,336.1,20.3,14219.0,Low,A
Sarawak,Sandy,Tomato,133.8,13.2,6282.9,Low,C
Sarawak,Sandy,Tomato,281.5,2.9,10116.3,Medium,B
Sarawak,Sandy,Tomato,210.6,41.9,19494.5,Medium,S
Sarawak,Sandy,Tomato,258.4,40.7,6594.8,High,S
Sarawak,Sandy,Tomato,334.9,6.9,11586.4,High,S
Sarawak,Sandy,Lettuce,224.2,33.7,4704.4,Low,B
Sarawak,Sandy,Lettuce,211.7,12.0,4528.5,Low,C
Sarawak,Sandy,Lettuce,202.5,28.1,19688.4,Medium,A
Sarawak,Sandy,Lettuce,215.7,16.6,12751.3,Medium,B
Sarawak,Sandy,Lettuce,149.6,7.9,5566.2,High,B
Sarawak,Sandy,Lettuce,305.1,10.8,18057.4,High,S
Sarawak,Sandy,Chili,240.9,24.3,14496.8,Low,B
Sarawak,Sandy,Chili,266.3,25.5,16754.8,Low,B
Sarawak,Sandy,Chili,99.4,13.9,18944.5,Medium,B
Sarawak,Sandy,Chili,279.6,35.5,17506.1,Medium,S
Sarawak,Sandy,Chili,308.9,33.1,3672.7,High,A
Sarawak,Sandy,Chili,272.7,29.4,3621.3,High,S
Sarawak,Sandy,Corn,194.2,36.6,10779.6,Low,A
Sarawak,Sandy,Corn,244.3,4.5,14616.9,Low,B
Sarawak,Sandy,Corn,57.8,8.4,9066.7,Medium,C
Sarawak,Sandy,Corn,84.5,41.3,14912.1,Medium,S
Sarawak,Sandy,Corn,128.2,5.7,18255.3,High,A
Sarawak,Sandy,Corn,222.9,22.5,11822.8,High,S
Sarawak,Sandy,Paddy,73.0,9.6,17264.6,Low,C
Sarawak,Sandy,Paddy,286.5,15.5,11377.5,Low,B
Sarawak,Sandy,Paddy,190.2,3.9,2977.1,Medium,C
Sarawak,Sandy,Paddy,315.7,18.2,14733.4,Medium,A
Sarawak,Sandy,Paddy,267.2,13.8,4999.2,High,A
Sarawak,Sandy,Paddy,86.9,19.8,17954.0,High,A
Sarawak,Sandy,Papaya,347.2,17.9,2980.0,Low,C
Sarawak,Sandy,Papaya,101.1,26.8,16592.0,Low,B
Sarawak,Sandy,Papaya,61.8,22.2,10134.6,Medium,C
Sarawak,Sandy,Papaya,230.6,28.4,11200.5,Medium,A
Sarawak,Sandy,Papaya,349.6,35.2,17572.3,High,S
Sarawak,Sandy,Papaya,306.8,24.6,4515.3,High,A
Sarawak,Sandy,Durian,290.6,41.9,19305.0,Low,A
Sarawak,Sandy,Durian,208.6,40.3,20304.7,Low,S
Sarawak,Sandy,Durian,128.5,33.5,21243.0,Medium,S
Sarawak,Sandy,Durian,214.2,22.4,19609.1,Medium,A
Sarawak,Sandy,Durian,108.2,32.9,5753.7,High,A
Sarawak,Sandy,Durian,169.9,12.4,15460.0,High,A
Sarawak,Silty,Tomato,170.0,31.1,16519.8,Low,A
Sarawak,Silty,Tomato,243.6,30.7,8149.9,Low,B
Sarawak,Silty,Tomato,56.2,39.8,17129.6,Medium,A
Sarawak,Silty,Tomato,266.7,38.3,10617.8,Medium,A
Sarawak,Silty,Tomato,338.2,12.8,11239.3,High,A
Sarawak,Silty,Tomato,167.1,42.7,14632.6,High,S
Sarawak,Silty,Lettuce,333.8,18.1,7812.2,Low,B
Sarawak,Silty,Lettuce,106.0,35.9,16422.5,Low,B
Sarawak,Silty,Lettuce,213.0,10.0,5833.4,Medium,B
Sarawak,Silty,Lettuce,268.8,30.8,11396.6,Medium,A
Sarawak,Silty,Lettuce,287.6,39.1,12259.6,High,S
Sarawak,Silty,Lettuce,209.1,41.4,2449.8,High,A
Sarawak,Silty,Chili,82.7,12.4,15948.1,Low,C
Sarawak,Silty,Chili,299.1,13.8,16509.9,Low,B
Sarawak,Silty,Chili,233.0,32.0,15473.6,Medium,A
Sarawak,Silty,Chili,136.9,29.5,21862.5,Medium,A
Sarawak,Silty,Chili,111.4,11.3,21394.6,High,S
Sarawak,Silty,Chili,108.3,24.6,13742.4,High,S
Sarawak,Silty,Corn,86.7,33.3,18134.1,Low,A
Sarawak,Silty,Corn,77.0,32.6,11094.9,Low,B
Sarawak,Silty,Corn,313.6,7.3,2966.6,Medium,B
Sarawak,Silty,Corn,122.3,5.9,15575.7,Medium,B
Sarawak,Silty,Corn,90.4,29.7,21988.9,High,S
Sarawak,Silty,Corn,172.0,3.5,3536.8,High,C
Sarawak,Silty,Paddy,275.0,34.7,11933.3,Low,A
Sarawak,Silty,Paddy,347.4,6.1,21214.8,Low,A
Sarawak,Silty,Paddy,283.7,33.0,12489.5,Medium,A
Sarawak,Silty,Paddy,323.5,11.0,2531.4,Medium,B
Sarawak,Silty,Paddy,225.8,16.4,10300.5,High,A
Sarawak,Silty,Paddy,301.3,24.5,2262.4,High,S
Sarawak,Silty,Papaya,150.2,29.4,11947.0,Low,B
Sarawak,Silty,Papaya,296.9,27.6,21207.4,Low,S
Sarawak,Silty,Papaya,325.0,39.9,15602.4,Medium,S
Sarawak,Silty,Papaya,232.9,16.9,19717.7,Medium,A
Sarawak,Silty,Papaya,231.1,36.8,19416.8,High,S
Sarawak,Silty,Papaya,222.5,6.7,7844.9,High,B
Sarawak,Silty,Durian,209.0,16.7,2527.5,Low,D
Sarawak,Silty,Durian,349.1,10.4,18298.9,Low,B
Sarawak,Silty,Durian,114.7,27.9,4957.6,Medium,B
Sarawak,Silty,Durian,132.5,16.5,3534.9,Medium,C
Sarawak,Silty,Durian,60.9,34.1,16614.5,High,A
Sarawak,Silty,Durian,210.8,42.4,2857.1,High,S
Selangor,Clay,Tomato,56.4,36.1,6753.0,Low,B
Selangor,Clay,Tomato,178.6,43.6,16875.1,Low,A
Selangor,Clay,Tomato,78.8,34.1,10530.3,Medium,A
Selangor,Clay,Tomato,331.7,42.6,19496.6,Medium,S
Selangor,Clay,Tomato,315.5,17.5,9956.6,High,S
Selangor,Clay,Tomato,295.5,34.8,9725.7,High,S
Selangor,Clay,Lettuce,71.8,42.4,6257.1,Low,B
Selangor,Clay,Lettuce,280.3,12.9,8810.7,Low,C
Selangor,Clay,Lettuce,178.9,25.7,10724.8,Medium,B
Selangor,Clay,Lettuce,237.9,22.9,17261.0,Medium,A
Selangor,Clay,Lettuce,92.8,11.1,12489.8,High,B
Selangor,Clay,Lettuce,274.9,3.7,6842.0,High,A
Selangor,Clay,Chili,51.5,24.7,10948.6,Low,C
Selangor,Clay,Chili,139.5,22.5,15342.1,Low,B
Selangor,Clay,Chili,318.1,7.9,2922.4,Medium,C
Selangor,Clay,Chili,162.3,33.1,3068.0,Medium,B
Selangor,Clay,Chili,185.5,31.8,14113.6,High,A
Selangor,Clay,Chili,160.5,26.3,16150.9,High,S
Selangor,Clay,Corn,135.7,9.8,2315.5,Low,D
Selangor,Clay,Corn,347.6,27.1,5312.0,Low,B
Selangor,Clay,Corn,261.8,28.8,14519.2,Medium,S
Selangor,Clay,Corn,221.8,18.2,17610.4,Medium,A
Selangor,Clay,Corn,215.8,28.0,14006.2,High,S
Selangor,Clay,Corn,253.5,44.2,11124.0,High,S
Selangor,Clay,Paddy,138.7,25.0,9323.6,Low,C
Selangor,Clay,Paddy,335.6,12.7,8607.1,Low,C
Selangor,Clay,Paddy,56.4,23.5,8191.9,Medium,B
Selangor,Clay,Paddy,342.5,10.4,5502.5,Medium,B
Selangor,Clay,Paddy,105.5,35.6,18387.3,High,S
Selangor,Clay,Paddy,92.4,43.7,10084.2,High,S
Selangor,Clay,Papaya,331.3,19.5,15993.6,Low,A
Selangor,Clay,Papaya,191.9,19.1,4354.3,Low,C
Selangor,Clay,Papaya,341.7,3.3,10839.8,Medium,B
Selangor,Clay,Papaya,142.9,42.6,16488.0,Medium,S
Selangor,Clay,Papaya,116.1,30.8,14048.0,High,A
Selangor,Clay,Papaya,123.2,42.9,4770.5,High,S
Selangor,Clay,Durian,277.1,37.9,21618.7,Low,S
Selangor,Clay,Durian,319.2,43.3,19745.7,Low,A
Selangor,Clay,Durian,92.7,31.9,14200.1,Medium,B
Selangor,Clay,Durian,214.8,38.5,4944.8,Medium,A
Selangor,Clay,Durian,157.6,31.1,10682.9,High,A
Selangor,Clay,Durian,285.1,18.4,9565.9,High,A
Selangor,Loam,Tomato,71.8,37.7,2298.7,Low,C
Selangor,Loam,Tomato,177.8,30.9,15713.4,Low,B
Selangor,Loam,Tomato,107.1,24.7,13430.1,Medium,A
Selangor,Loam,Tomato,275.1,12.8,5840.8,Medium,B
Selangor,Loam,Tomato,212.4,12.3,17925.7,High,A
Selangor,Loam,Tomato,202.7,28.9,2811.2,High,B
Selangor,Loam,Lettuce,337.8,22.6,6474.7,Low,C
Selangor,Loam,Lettuce,305.7,20.7,9813.5,Low,B
Selangor,Loam,Lettuce,68.8,4.4,18674.2,Medium,B
Selangor,Loam,Lettuce,201.2,5.2,15366.3,Medium,A
Selangor,Loam,Lettuce,150.5,43.7,19089.0,High,S
Selangor,Loam,Lettuce,69.9,24.7,14241.4,High,A
Selangor,Loam,Chili,137.9,28.1,19156.7,Low,B
Selangor,Loam,Chili,185.9,35.3,19258.0,Low,A
Selangor,Loam,Chili,311.6,42.8,14841.5,Medium,S
Selangor,Loam,Chili,65.1,17.8,14750.1,Medium,B
Selangor,Loam,Chili,318.7,20.9,13976.7,High,S
Selangor,Loam,Chili,67.5,42.5,19708.7,High,S
Selangor,Loam,Corn,278.9,19.7,4600.6,Low,C
Selangor,Loam,Corn,55.8,36.3,16917.3,Low,B
Selangor,Loam,Corn,237.6,22.4,9689.5,Medium,B
Selangor,Loam,Corn,98.3,32.1,14036.0,Medium,A
Selangor,Loam,Corn,129.1,19.1,12479.6,High,A
Selangor,Loam,Corn,70.1,10.4,6053.3,High,C
Selangor,Loam,Paddy,331.2,43.0,8284.0,Low,A
Selangor,Loam,Paddy,101.4,16.8,21220.3,Low,C
Selangor,Loam,Paddy,213.4,5.4,2212.8,Medium,C
Selangor,Loam,Paddy,319.7,9.1,4033.1,Medium,B
Selangor,Loam,Paddy,50.1,6.8,17006.8,High,B
Selangor,Loam,Paddy,204.0,30.8,4647.1,High,A
Selangor,Loam,Papaya,222.0,16.8,4425.3,Low,C
Selangor,Loam,Papaya,72.3,30.7,7934.6,Low,C
Selangor,Loam,Papaya,64.8,43.3,19291.2,Medium,A
Selangor,Loam,Papaya,92.3,19.0,12205.4,Medium,A
Selangor,Loam,Papaya,78.4,13.8,21898.6,High,A
Selangor,Loam,Papaya,111.5,12.8,4032.3,High,B
Selangor,Loam,Durian,82.5,8.1,11264.1,Low,C
Selangor,Loam,Durian,250.2,9.3,5733.0,Low,D
Selangor,Loam,Durian,98.4,6.0,11831.5,Medium,B
Selangor,Loam,Durian,210.9,9.8,14565.3,Medium,B
Selangor,Loam,Durian,329.2,20.1,13450.4,High,S
Selangor,Loam,Durian,298.9,35.7,15735.6,High,S
Selangor,Sandy,Tomato,277.4,39.3,6632.6,Low,A
Selangor,Sandy,Tomato,122.9,6.9,12306.0,Low,C
Selangor,Sandy,Tomato,348.8,19.6,8769.4,Medium,A
Selangor,Sandy,Tomato,184.9,33.8,11856.5,Medium,A
Selangor,Sandy,Tomato,213.4,29.4,10055.6,High,S
Selangor,Sandy,Tomato,85.7,22.6,3221.8,High,B
Selangor,Sandy,Lettuce,198.9,40.7,12365.5,Low,A
Selangor,Sandy,Lettuce,308.0,2.7,17290.7,Low,C
Selangor,Sandy,Lettuce,93.1,30.3,5418.8,Medium,C
Selangor,Sandy,Lettuce,154.8,31.0,3723.8,Medium,B
Selangor,Sandy,Lettuce,312.0,17.7,17545.7,High,S
Selangor,Sandy,Lettuce,184.2,6.5,7298.2,High,B
Selangor,Sandy,Chili,269.7,24.5,17401.8,Low,B
Selangor,Sandy,Chili,344.5,8.0,13357.3,Low,B
Selangor,Sandy,Chili,276.5,43.1,13150.5,Medium,S
Selangor,Sandy,Chili,254.6,12.1,14468.7,Medium,B
Selangor,Sandy,Chili,285.0,39.3,21061.7,High,S
Selangor,Sandy,Chili,325.6,38.6,17967.7,High,S
Selangor,Sandy,Corn,257.5,11.9,18835.3,Low,B
Selangor,Sandy,Corn,265.8,32.8,7015.4,Low,B
Selangor,Sandy,Corn,244.5,14.8,14112.0,Medium,A
Selangor,Sandy,Corn,232.9,25.8,3320.3,Medium,C
Selangor,Sandy,Corn,154.0,28.9,12150.7,High,S
Selangor,Sandy,Corn,275.4,3.5,15096.7,High,B
Selangor,Sandy,Paddy,327.1,12.1,12879.4,Low,B
Selangor,Sandy,Paddy,193.3,25.2,21442.2,Low,B
Selangor,Sandy,Paddy,330.2,21.4,9609.0,Medium,B
Selangor,Sandy,Paddy,234.2,32.9,15273.8,Medium,A
Selangor,Sandy,Paddy,233.1,23.2,12839.5,High,S
Selangor,Sandy,Paddy,222.4,20.8,11944.5,High,S
Selangor,Sandy,Papaya,301.1,7.6,12322.3,Low,C
Selangor,Sandy,Papaya,348.3,3.6,14866.1,Low,C
Selangor,Sandy,Papaya,207.3,19.1,5724.7,Medium,B
Selangor,Sandy,Papaya,121.2,4.2,7386.5,Medium,D
Selangor,Sandy,Papaya,318.4,17.5,21889.5,High,S
Selangor,Sandy,Papaya,235.9,31.5,13383.9,High,A
Selangor,Sandy,Durian,87.4,14.0,12835.4,Low,C
Selangor,Sandy,Durian,152.8,18.1,7024.1,Low,C
Selangor,Sandy,Durian,168.0,27.5,5922.1,Medium,B
Selangor,Sandy,Durian,294.6,14.6,14766.0,Medium,A
Selangor,Sandy,Durian,89.9,24.9,13521.1,High,A
Selangor,Sandy,Durian,167.4,39.3,19325.8,High,S
Selangor,Silty,Tomato,338.1,41.7,20690.7,Low,S
Selangor,Silty,Tomato,99.3,5.4,15610.6,Low,C
Selangor,Silty,Tomato,209.9,16.5,21787.6,Medium,A
Selangor,Silty,Tomato,324.2,16.8,5353.6,Medium,B
Selangor,Silty,Tomato,171.1,27.3,19366.7,High,S
Selangor,Silty,Tomato,208.9,35.6,9401.0,High,A
Selangor,Silty,Lettuce,347.4,23.7,13198.7,Low,B
Selangor,Silty,Lettuce,159.7,42.9,11792.6,Low,B
Selangor,Silty,Lettuce,165.9,38.6,8487.5,Medium,A
Selangor,Silty,Lettuce,276.8,35.2,7746.1,Medium,A
Selangor,Silty,Lettuce,52.3,15.2,14463.6,High,A
Selangor,Silty,Lettuce,318.2,37.4,3490.2,High,S
Selangor,Silty,Chili,324.2,27.8,5296.3,Low,C
Selangor,Silty,Chili,299.9,16.3,6720.4,Low,B
Selangor,Silty,Chili,75.8,17.7,9890.6,Medium,C
Selangor,Silty,Chili,138.1,6.6,18552.0,Medium,B
Selangor,Silty,Chili,115.0,9.5,14387.6,High,B
Selangor,Silty,Chili,175.8,33.3,21012.5,High,S
Selangor,Silty,Corn,289.6,21.2,8346.4,Low,C
Selangor,Silty,Corn,236.2,43.0,4993.7,Low,A
Selangor,Silty,Corn,290.7,14.2,17395.2,Medium,B
Selangor,Silty,Corn,282.9,9.6,9658.6,Medium,B
Selangor,Silty,Corn,349.3,31.9,12474.4,High,S
Selangor,Silty,Corn,231.5,37.9,17155.3,High,S
Selangor,Silty,Paddy,158.3,12.1,12285.1,Low,C
Selangor,Silty,Paddy,280.1,19.3,19803.7,Low,A
Selangor,Silty,Paddy,217.2,41.3,17517.2,Medium,S
Selangor,Silty,Paddy,336.7,39.2,13671.3,Medium,S
Selangor,Silty,Paddy,276.3,25.2,7590.8,High,S
Selangor,Silty,Paddy,91.5,32.4,12204.2,High,S
Selangor,Silty,Papaya,318.0,14.0,14643.4,Low,B
Selangor,Silty,Papaya,176.6,17.6,19335.9,Low,B
Selangor,Silty,Papaya,302.5,14.4,12040.6,Medium,B
Selangor,Silty,Papaya,234.3,7.1,3659.6,Medium,C
Selangor,Silty,Papaya,345.6,3.1,20651.5,High,A
Selangor,Silty,Papaya,61.8,8.7,8136.8,High,B
Selangor,Silty,Durian,225.9,39.8,3455.0,Low,C
Selangor,Silty,Durian,242.8,37.5,21824.0,Low,A
Selangor,Silty,Durian,147.8,15.6,6166.9,Medium,C
Selangor,Silty,Durian,194.2,24.4,14668.4,Medium,A
Selangor,Silty,Durian,271.4,31.3,7678.2,High,A
Selangor,Silty,Durian,205.9,28.5,9716.5,High,S
Terengganu,Clay,Tomato,265.0,8.2,21261.9,Low,A
Terengganu,Clay,Tomato,331.0,20.2,19977.4,Low,S
Terengganu,Clay,Tomato,265.8,14.6,10265.6,Medium,A
Terengganu,Clay,Tomato,88.9,38.4,21695.8,Medium,S
Terengganu,Clay,Tomato,325.8,14.4,20994.1,High,S
Terengganu,Clay,Tomato,115.5,37.0,16151.3,High,S
Terengganu,Clay,Lettuce,81.8,7.8,18726.8,Low,C
Terengganu,Clay,Lettuce,232.0,39.8,14903.0,Low,A
Terengganu,Clay,Lettuce,237.2,4.5,16765.9,Medium,A
Terengganu,Clay,Lettuce,205.9,19.9,11790.8,Medium,B
Terengganu,Clay,Lettuce,215.8,16.8,12650.3,High,S
Terengganu,Clay,Lettuce,171.2,32.4,15303.1,High,S
Terengganu,Clay,Chili,104.2,17.1,11285.2,Low,C
Terengganu,Clay,Chili,342.0,26.2,7312.6,Low,B
Terengganu,Clay,Chili,96.4,26.6,2653.9,Medium,C
Terengganu,Clay,Chili,77.1,37.1,19097.6,Medium,S
Terengganu,Clay,Chili,164.7,30.3,6821.8,High,A
Terengganu,Clay,Chili,65.9,39.4,16365.8,High,S
Terengganu,Clay,Corn,243.6,9.5,11143.3,Low,C
Terengganu,Clay,Corn,182.9,32.8,6345.4,Low,B
Terengganu,Clay,Corn,224.8,10.0,18757.2,Medium,B
Terengganu,Clay,Corn,104.5,8.7,21103.9,Medium,A
Terengganu,Clay,Corn,114.2,19.7,5423.9,High,B
Terengganu,Clay,Corn,178.1,16.1,19077.3,High,A
Terengganu,Clay,Paddy,141.0,25.8,4877.5,Low,B
Terengganu,Clay,Paddy,147.5,17.6,21283.0,Low,A
Terengganu,Clay,Paddy,306.7,25.2,8404.1,Medium,S
Terengganu,Clay,Paddy,130.0,7.3,16495.7,Medium,B
Terengganu,Clay,Paddy,273.1,23.2,5231.2,High,A
Terengganu,Clay,Paddy,124.1,2.8,8652.5,High,B
Terengganu,Clay,Papaya,223.3,43.0,11962.3,Low,A
Terengganu,Clay,Papaya,84.9,40.4,14072.1,Low,A
Terengganu,Clay,Papaya,224.7,2.1,13420.9,Medium,B
Terengganu,Clay,Papaya,98.6,16.2,15334.4,Medium,B
Terengganu,Clay,Papaya,277.9,41.2,16375.3,High,S
Terengganu,Clay,Papaya,262.4,37.2,4765.5,High,S
Terengganu,Clay,Durian,333.7,24.3,4613.4,Low,C
Terengganu,Clay,Durian,252.6,43.8,4694.3,Low,B
Terengganu,Clay,Durian,268.8,33.2,3085.8,Medium,B
Terengganu,Clay,Durian,61.3,3.9,17219.9,Medium,B
Terengganu,Clay,Durian,293.2,31.5,11312.0,High,S
Terengganu,Clay,Durian,309.1,20.8,15671.9,High,S
Terengganu,Loam,Tomato,266.6,39.8,15347.0,Low,A
Terengganu,Loam,Tomato,121.0,25.0,20486.1,Low,A
Terengganu,Loam,Tomato,326.8,36.0,18272.2,Medium,S
Terengganu,Loam,Tomato,55.2,44.1,6725.7,Medium,B
Terengganu,Loam,Tomato,74.6,26.6,17885.0,High,S
Terengganu,Loam,Tomato,188.1,16.9,19436.5,High,S
Terengganu,Loam,Lettuce,311.6,26.5,20570.7,Low,A
Terengganu,Loam,Lettuce,283.7,29.6,5349.6,Low,A
Terengganu,Loam,Lettuce,332.5,34.2,15280.2,Medium,S
Terengganu,Loam,Lettuce,109.7,13.9,19357.1,Medium,A
Terengganu,Loam,Lettuce,67.0,37.4,20233.1,High,S
Terengganu,Loam,Lettuce,347.7,5.6,15735.5,High,S
Terengganu,Loam,Chili,232.6,7.0,9956.4,Low,C
Terengganu,Loam,Chili,269.5,7.0,5148.1,Low,C
Terengganu,Loam,Chili,327.2,43.3,10202.2,Medium,S
Terengganu,Loam,Chili,91.9,7.0,17427.5,Medium,B
Terengganu,Loam,Chili,84.8,18.5,4090.1,High,A
Terengganu,Loam,Chili,62.6,28.6,2638.3,High,B
Terengganu,Loam,Corn,152.9,33.9,12583.1,Low,B
Terengganu,Loam,Corn,124.6,41.8,16935.5,Low,A
Terengganu,Loam,Corn,138.1,10.3,9605.7,Medium,C
Terengganu,Loam,Corn,54.0,9.7,15012.5,Medium,B
Terengganu,Loam,Corn,140.4,24.4,4992.6,High,A
Terengganu,Loam,Corn,102.8,5.9,2454.2,High,B
Terengganu,Loam,Paddy,168.4,24.6,20438.6,Low,A
Terengganu,Loam,Paddy,222.9,16.0,4692.7,Low,C
Terengganu,Loam,Paddy,162.7,2.7,18464.8,Medium,B
Terengganu,Loam,Paddy,304.1,44.8,8999.5,Medium,S
Terengganu,Loam,Paddy,287.3,36.8,16719.7,High,S
Terengganu,Loam,Paddy,329.2,32.8,13377.4,High,S
Terengganu,Loam,Papaya,283.8,27.1,18469.9,Low,S
Terengganu,Loam,Papaya,118.7,21.5,4837.6,Low,D
Terengganu,Loam,Papaya,330.6,25.6,12792.8,Medium,S
Terengganu,Loam,Papaya,278.8,7.6,18926.8,Medium,A
Terengganu,Loam,Papaya,72.5,33.9,5123.4,High,B
Terengganu,Loam,Papaya,194.6,4.3,4462.3,High,B
Terengganu,Loam,Durian,193.8,26.0,7558.6,Low,C
Terengganu,Loam,Durian,235.8,21.1,16430.9,Low,B
Terengganu,Loam,Durian,177.9,27.4,10246.8,Medium,B
Terengganu,Loam,Durian,308.0,24.8,20903.0,Medium,S
Terengganu,Loam,Durian,145.8,43.0,5172.0,High,S
Terengganu,Loam,Durian,239.5,2.3,16024.0,High,S
Terengganu,Sandy,Tomato,59.7,4.5,2337.2,Low,F
Terengganu,Sandy,Tomato,321.5,43.1,13288.6,Low,S
Terengganu,Sandy,Tomato,185.4,20.2,17736.8,Medium,A
Terengganu,Sandy,Tomato,161.3,27.4,17567.6,Medium,A
Terengganu,Sandy,Tomato,135.5,38.3,20915.4,High,S
Terengganu,Sandy,Tomato,302.5,7.9,18201.8,High,S
Terengganu,Sandy,Lettuce,50.8,3.9,3188.0,Low,F
Terengganu,Sandy,Lettuce,285.1,7.3,6144.4,Low,C
Terengganu,Sandy,Lettuce,271.0,19.7,6597.0,Medium,B
Terengganu,Sandy,Lettuce,132.9,42.6,11779.7,Medium,A
Terengganu,Sandy,Lettuce,62.8,2.6,3948.6,High,C
Terengganu,Sandy,Lettuce,159.9,6.6,13854.9,High,A
Terengganu,Sandy,Chili,82.5,16.7,3216.0,Low,F
Terengganu,Sandy,Chili,202.5,19.6,4033.3,Low,D
Terengganu,Sandy,Chili,263.8,16.3,21375.5,Medium,S
Terengganu,Sandy,Chili,136.3,43.7,21077.8,Medium,S
Terengganu,Sandy,Chili,109.8,19.2,4284.1,High,B
Terengganu,Sandy,Chili,55.2,20.7,8978.7,High,A
Terengganu,Sandy,Corn,252.9,21.2,16068.2,Low,B
Terengganu,Sandy,Corn,198.9,10.8,13225.2,Low,C
Terengganu,Sandy,Corn,349.9,36.6,17540.1,Medium,S
Terengganu,Sandy,Corn,97.0,36.8,20774.8,Medium,S
Terengganu,Sandy,Corn,301.5,40.3,10736.2,High,S
Terengganu,Sandy,Corn,156.0,4.8,6811.0,High,C
Terengganu,Sandy,Paddy,306.1,2.8,3151.6,Low,D
Terengganu,Sandy,Paddy,174.4,6.3,21301.6,Low,B
Terengganu,Sandy,Paddy,57.5,4.9,4329.6,Medium,D
Terengganu,Sandy,Paddy,195.7,22.1,20278.6,Medium,A
Terengganu,Sandy,Paddy,274.7,13.3,6719.0,High,A
Terengganu,Sandy,Paddy,215.6,37.3,13258.4,High,S
Terengganu,Sandy,Papaya,262.3,31.9,13483.4,Low,B
Terengganu,Sandy,Papaya,250.3,32.4,8333.3,Low,B
Terengganu,Sandy,Papaya,126.7,28.2,2758.0,Medium,B
Terengganu,Sandy,Papaya,244.0,27.7,11938.1,Medium,S
Terengganu,Sandy,Papaya,285.0,24.8,11856.5,High,S
Terengganu,Sandy,Papaya,69.5,21.9,10780.3,High,B
Terengganu,Sandy,Durian,174.4,27.9,16998.1,Low,B
Terengganu,Sandy,Durian,322.4,43.1,4968.8,Low,A
Terengganu,Sandy,Durian,335.8,22.9,13420.4,Medium,A
Terengganu,Sandy,Durian,299.3,34.8,10737.9,Medium,A
Terengganu,Sandy,Durian,256.7,24.2,13819.5,High,S
Terengganu,Sandy,Durian,220.5,6.9,14210.9,High,A
Terengganu,Silty,Tomato,70.1,37.4,7282.3,Low,B
Terengganu,Silty,Tomato,304.4,43.1,4791.3,Low,B
Terengganu,Silty,Tomato,65.3,21.8,20081.5,Medium,A
Terengganu,Silty,Tomato,81.7,19.7,18820.5,Medium,A
Terengganu,Silty,Tomato,247.8,29.1,15208.8,High,S
Terengganu,Silty,Tomato,304.9,40.8,12915.0,High,S
Terengganu,Silty,Lettuce,75.1,17.9,16036.3,Low,B
Terengganu,Silty,Lettuce,203.9,23.7,21861.0,Low,A
Terengganu,Silty,Lettuce,320.2,40.6,3670.0,Medium,A
Terengganu,Silty,Lettuce,56.7,38.0,12073.0,Medium,A
Terengganu,Silty,Lettuce,136.9,30.4,2610.7,High,A
Terengganu,Silty,Lettuce,71.2,25.5,9980.0,High,A
Terengganu,Silty,Chili,210.5,8.9,4404.9,Low,C
Terengganu,Silty,Chili,315.0,24.4,16748.9,Low,A
Terengganu,Silty,Chili,344.9,43.8,9476.0,Medium,S
Terengganu,Silty,Chili,211.7,4.7,2513.9,Medium,C
Terengganu,Silty,Chili,175.6,15.8,15331.7,High,S
Terengganu,Silty,Chili,103.9,10.1,13268.6,High,B
Terengganu,Silty,Corn,171.0,34.9,15359.7,Low,A
Terengganu,Silty,Corn,203.3,23.5,18342.8,Low,B
Terengganu,Silty,Corn,99.6,30.8,13193.8,Medium,A
Terengganu,Silty,Corn,189.0,34.3,13571.9,Medium,S
Terengganu,Silty,Corn,329.1,22.5,14707.8,High,S
Terengganu,Silty,Corn,226.7,11.9,4358.3,High,A
Terengganu,Silty,Paddy,76.5,27.0,4249.9,Low,C
Terengganu,Silty,Paddy,198.3,25.7,6962.2,Low,B
Terengganu,Silty,Paddy,252.3,36.8,13064.2,Medium,A
Terengganu,Silty,Paddy,266.9,17.2,17580.6,Medium,A
Terengganu,Silty,Paddy,289.4,36.6,15400.6,High,S
Terengganu,Silty,Paddy,137.9,3.9,14094.9,High,B
Terengganu,Silty,Papaya,241.9,37.9,9526.3,Low,A
Terengganu,Silty,Papaya,266.1,42.2,10586.2,Low,A
Terengganu,Silty,Papaya,203.5,8.5,10878.9,Medium,B
Terengganu,Silty,Papaya,151.4,18.6,5196.1,Medium,B
Terengganu,Silty,Papaya,224.0,12.5,14606.3,High,A
Terengganu,Silty,Papaya,214.0,2.0,21353.2,High,S
Terengganu,Silty,Durian,283.6,13.4,10002.6,Low,B
Terengganu,Silty,Durian,118.4,3.8,10718.2,Low,C
Terengganu,Silty,Durian,168.6,8.5,21750.5,Medium,A
Terengganu,Silty,Durian,230.6,4.9,2441.1,Medium,B
Terengganu,Silty,Durian,76.8,5.2,21974.2,High,A
Terengganu,Silty,Durian,318.8,44.8,6965.7,High,S
'Wilayah Persekutuan',Clay,Tomato,346.1,29.5,5264.9,Low,B
'Wilayah Persekutuan',Clay,Tomato,111.4,19.5,6653.0,Low,C
'Wilayah Persekutuan',Clay,Tomato,172.3,2.0,5731.6,Medium,D
'Wilayah Persekutuan',Clay,Tomato,325.5,15.8,12220.9,Medium,A
'Wilayah Persekutuan',Clay,Tomato,283.9,32.1,20200.2,High,S
'Wilayah Persekutuan',Clay,Tomato,336.8,34.3,11911.8,High,S
'Wilayah Persekutuan',Clay,Lettuce,234.9,20.4,15005.7,Low,B
'Wilayah Persekutuan',Clay,Lettuce,259.1,13.8,17754.0,Low,B
'Wilayah Persekutuan',Clay,Lettuce,303.5,22.2,16806.7,Medium,S
'Wilayah Persekutuan',Clay,Lettuce,329.4,4.8,12315.7,Medium,A
'Wilayah Persekutuan',Clay,Lettuce,228.4,26.6,12932.4,High,A
'Wilayah Persekutuan',Clay,Lettuce,212.3,41.0,2057.0,High,A
'Wilayah Persekutuan',Clay,Chili,300.0,8.3,7430.0,Low,C
'Wilayah Persekutuan',Clay,Chili,174.1,38.5,4091.7,Low,C
'Wilayah Persekutuan',Clay,Chili,147.9,9.9,9890.4,Medium,C
'Wilayah Persekutuan',Clay,Chili,129.5,20.2,15263.4,Medium,B
'Wilayah Persekutuan',Clay,Chili,324.5,32.1,13635.4,High,S
'Wilayah Persekutuan',Clay,Chili,214.9,15.4,12134.5,High,A
'Wilayah Persekutuan',Clay,Corn,256.6,39.3,8546.5,Low,B
'Wilayah Persekutuan',Clay,Corn,343.7,36.6,2986.0,Low,B
'Wilayah Persekutuan',Clay,Corn,90.4,27.8,5611.6,Medium,B
'Wilayah Persekutuan',Clay,Corn,284.3,44.8,6927.9,Medium,S
'Wilayah Persekutuan',Clay,Corn,316.7,3.9,4267.8,High,B
'Wilayah Persekutuan',Clay,Corn,176.7,33.3,6541.4,High,A
'Wilayah Persekutuan',Clay,Paddy,275.8,25.9,9897.7,Low,B
'Wilayah Persekutuan',Clay,Paddy,124.6,44.0,14952.4,Low,B
'Wilayah Persekutuan',Clay,Paddy,223.8,16.1,13989.9,Medium,B
'Wilayah Persekutuan',Clay,Paddy,52.3,3.1,15121.3,Medium,C
'Wilayah Persekutuan',Clay,Paddy,292.1,14.8,21425.5,High,S
'Wilayah Persekutuan',Clay,Paddy,64.1,41.6,21972.8,High,S
'Wilayah Persekutuan',Clay,Papaya,132.2,40.8,19231.3,Low,A
'Wilayah Persekutuan',Clay,Papaya,179.4,19.6,8537.5,Low,C
'Wilayah Persekutuan',Clay,Papaya,98.5,37.3,20627.9,Medium,A
'Wilayah Persekutuan',Clay,Papaya,309.6,23.1,10861.9,Medium,A
'Wilayah Persekutuan',Clay,Papaya,58.8,21.4,21059.8,High,S
'Wilayah Persekutuan',Clay,Papaya,339.4,10.3,12128.4,High,S
'Wilayah Persekutuan',Clay,Durian,177.5,12.4,17644.6,Low,C
'Wilayah Persekutuan',Clay,Durian,171.3,18.4,4616.1,Low,C
'Wilayah Persekutuan',Clay,Durian,281.1,16.5,7783.8,Medium,B
'Wilayah Persekutuan',Clay,Durian,239.8,28.0,8940.5,Medium,A
'Wilayah Persekutuan',Clay,Durian,52.7,42.1,10509.9,High,S
'Wilayah Persekutuan',Clay,Durian,85.5,8.5,5620.9,High,B
'Wilayah Persekutuan',Loam,Tomato,185.6,43.5,11567.3,Low,A
'Wilayah Persekutuan',Loam,Tomato,143.2,7.8,8320.1,Low,D
'Wilayah Persekutuan',Loam,Tomato,58.3,5.4,7618.6,Medium,C
'Wilayah Persekutuan',Loam,Tomato,77.7,41.2,19035.7,Medium,S
'Wilayah Persekutuan',Loam,Tomato,125.4,36.3,14788.4,High,S
'Wilayah Persekutuan',Loam,Tomato,51.8,40.9,12737.0,High,A
'Wilayah Persekutuan',Loam,Lettuce,226.6,44.2,11624.0,Low,A
'Wilayah Persekutuan',Loam,Lettuce,217.6,10.4,3582.6,Low,C
'Wilayah Persekutuan',Loam,Lettuce,314.7,17.4,20614.5,Medium,S
'Wilayah Persekutuan',Loam,Lettuce,329.3,13.7,4698.2,Medium,B
'Wilayah Persekutuan',Loam,Lettuce,287.8,38.7,14771.9,High,S
'Wilayah Persekutuan',Loam,Lettuce,94.2,6.8,5292.5,High,C
'Wilayah Persekutuan',Loam,Chili,125.4,33.6,19690.0,Low,B
'Wilayah Persekutuan',Loam,Chili,179.0,31.9,16589.9,Low,A
'Wilayah Persekutuan',Loam,Chili,209.7,21.8,9007.1,Medium,A
'Wilayah Persekutuan',Loam,Chili,100.6,44.3,20959.8,Medium,S
'Wilayah Persekutuan',Loam,Chili,88.4,30.9,15894.3,High,A
'Wilayah Persekutuan',Loam,Chili,147.3,12.9,17938.3,High,S
'Wilayah Persekutuan',Loam,Corn,130.5,3.4,20891.5,Low,C
'Wilayah Persekutuan',Loam,Corn,245.8,14.3,11344.5,Low,B
'Wilayah Persekutuan',Loam,Corn,311.0,38.4,3534.1,Medium,A
'Wilayah Persekutuan',Loam,Corn,108.1,42.2,21694.5,Medium,S
'Wilayah Persekutuan',Loam,Corn,211.2,34.9,16619.4,High,S
'Wilayah Persekutuan',Loam,Corn,332.0,33.5,21665.8,High,S
'Wilayah Persekutuan',Loam,Paddy,320.4,19.1,6125.6,Low,B
'Wilayah Persekutuan',Loam,Paddy,243.5,31.2,5327.2,Low,C
'Wilayah Persekutuan',Loam,Paddy,107.5,37.8,12777.9,Medium,A
'Wilayah Persekutuan',Loam,Paddy,295.9,40.6,9072.6,Medium,A
'Wilayah Persekutuan',Loam,Paddy,212.9,36.5,3345.4,High,S
'Wilayah Persekutuan',Loam,Paddy,338.7,37.5,7098.6,High,S
'Wilayah Persekutuan',Loam,Papaya,108.3,18.6,21886.6,Low,A
'Wilayah Persekutuan',Loam,Papaya,147.5,25.4,18594.9,Low,B
'Wilayah Persekutuan',Loam,Papaya,318.1,16.2,6590.4,Medium,B
'Wilayah Persekutuan',Loam,Papaya,60.7,41.6,16000.1,Medium,A
'Wilayah Persekutuan',Loam,Papaya,81.2,5.0,19451.7,High,A
'Wilayah Persekutuan',Loam,Papaya,201.5,24.1,3339.2,High,A
'Wilayah Persekutuan',Loam,Durian,346.7,14.0,7087.9,Low,B
'Wilayah Persekutuan',Loam,Durian,157.8,13.3,3069.7,Low,D
'Wilayah Persekutuan',Loam,Durian,295.8,39.8,15768.7,Medium,S
'Wilayah Persekutuan',Loam,Durian,235.9,21.4,17685.6,Medium,A
'Wilayah Persekutuan',Loam,Durian,242.5,30.0,20207.0,High,S
'Wilayah Persekutuan',Loam,Durian,146.1,29.7,4466.7,High,A
'Wilayah Persekutuan',Sandy,Tomato,338.1,24.0,7109.1,Low,B
'Wilayah Persekutuan',Sandy,Tomato,165.8,28.8,13585.6,Low,B
'Wilayah Persekutuan',Sandy,Tomato,208.3,35.4,19696.0,Medium,S
'Wilayah Persekutuan',Sandy,Tomato,229.7,15.2,21705.7,Medium,A
'Wilayah Persekutuan',Sandy,Tomato,260.9,38.0,4093.1,High,S
'Wilayah Persekutuan',Sandy,Tomato,254.3,12.9,6651.0,High,A
'Wilayah Persekutuan',Sandy,Lettuce,308.6,44.4,12808.9,Low,S
'Wilayah Persekutuan',Sandy,Lettuce,263.1,9.5,4644.0,Low,D
'Wilayah Persekutuan',Sandy,Lettuce,217.0,11.7,10990.6,Medium,B
'Wilayah Persekutuan',Sandy,Lettuce,121.5,36.1,5019.0,Medium,C
'Wilayah Persekutuan',Sandy,Lettuce,243.8,25.6,2601.7,High,A
'Wilayah Persekutuan',Sandy,Lettuce,97.1,39.9,6201.8,High,A
'Wilayah Persekutuan',Sandy,Chili,310.1,41.7,16233.8,Low,A
'Wilayah Persekutuan',Sandy,Chili,113.6,8.3,2895.6,Low,F
'Wilayah Persekutuan',Sandy,Chili,105.5,9.6,2042.3,Medium,D
'Wilayah Persekutuan',Sandy,Chili,206.6,21.8,9588.0,Medium,B
'Wilayah Persekutuan',Sandy,Chili,58.9,38.2,13937.3,High,S
'Wilayah Persekutuan',Sandy,Chili,325.9,31.1,16297.3,High,S
'Wilayah Persekutuan',Sandy,Corn,214.3,37.2,5787.0,Low,B
'Wilayah Persekutuan',Sandy,Corn,77.9,4.7,16490.1,Low,C
'Wilayah Persekutuan',Sandy,Corn,136.8,15.7,6879.4,Medium,B
'Wilayah Persekutuan',Sandy,Corn,226.9,34.5,17723.4,Medium,A
'Wilayah Persekutuan',Sandy,Corn,284.9,35.0,13006.6,High,S
'Wilayah Persekutuan',Sandy,Corn,144.5,19.6,21648.8,High,S
'Wilayah Persekutuan',Sandy,Paddy,252.9,6.2,2073.0,Low,D
'Wilayah Persekutuan',Sandy,Paddy,348.4,21.7,17031.9,Low,A
'Wilayah Persekutuan',Sandy,Paddy,51.1,37.1,7579.0,Medium,B
'Wilayah Persekutuan',Sandy,Paddy,272.7,18.3,18681.8,Medium,A
'Wilayah Persekutuan',Sandy,Paddy,320.9,4.0,10657.0,High,A
'Wilayah Persekutuan',Sandy,Paddy,167.0,13.6,3476.5,High,B
'Wilayah Persekutuan',Sandy,Papaya,167.9,18.0,19350.1,Low,B
'Wilayah Persekutuan',Sandy,Papaya,261.2,40.3,20851.9,Low,S
'Wilayah Persekutuan',Sandy,Papaya,50.5,21.2,8478.6,Medium,C
'Wilayah Persekutuan',Sandy,Papaya,295.4,41.4,7377.3,Medium,A
'Wilayah Persekutuan',Sandy,Papaya,62.6,28.5,9345.7,High,A
'Wilayah Persekutuan',Sandy,Papaya,108.4,20.0,6046.0,High,B
'Wilayah Persekutuan',Sandy,Durian,163.4,33.2,13292.0,Low,B
'Wilayah Persekutuan',Sandy,Durian,166.5,21.7,2308.5,Low,D
'Wilayah Persekutuan',Sandy,Durian,180.0,25.9,19954.1,Medium,A
'Wilayah Persekutuan',Sandy,Durian,191.7,44.8,15208.2,Medium,S
'Wilayah Persekutuan',Sandy,Durian,234.3,17.7,9419.9,High,A
'Wilayah Persekutuan',Sandy,Durian,104.2,21.5,3550.7,High,B
'Wilayah Persekutuan',Silty,Tomato,163.1,31.8,6735.0,Low,C
'Wilayah Persekutuan',Silty,Tomato,76.1,20.6,16030.8,Low,B
'Wilayah Persekutuan',Silty,Tomato,186.4,43.4,12439.5,Medium,S
'Wilayah Persekutuan',Silty,Tomato,311.8,18.3,8054.5,Medium,B
'Wilayah Persekutuan',Silty,Tomato,306.4,34.7,21608.0,High,S
'Wilayah Persekutuan',Silty,Tomato,330.4,42.5,17679.3,High,S
'Wilayah Persekutuan',Silty,Lettuce,203.1,43.8,4355.6,Low,B
'Wilayah Persekutuan',Silty,Lettuce,137.2,5.9,16959.1,Low,C
'Wilayah Persekutuan',Silty,Lettuce,165.5,9.9,3492.6,Medium,C
'Wilayah Persekutuan',Silty,Lettuce,289.2,29.7,4893.1,Medium,B
'Wilayah Persekutuan',Silty,Lettuce,263.8,19.3,4755.4,High,B
'Wilayah Persekutuan',Silty,Lettuce,98.8,27.9,11550.6,High,A
'Wilayah Persekutuan',Silty,Chili,72.3,4.3,16142.7,Low,C
'Wilayah Persekutuan',Silty,Chili,315.2,33.0,9328.8,Low,A
'Wilayah Persekutuan',Silty,Chili,81.6,25.8,15620.3,Medium,B
'Wilayah Persekutuan',Silty,Chili,300.0,4.0,10702.4,Medium,B
'Wilayah Persekutuan',Silty,Chili,50.9,26.9,4526.6,High,A
'Wilayah Persekutuan',Silty,Chili,199.1,2.0,13490.5,High,A
'Wilayah Persekutuan',Silty,Corn,64.9,29.2,6391.1,Low,C
'Wilayah Persekutuan',Silty,Corn,152.7,13.8,3056.8,Low,D
'Wilayah Persekutuan',Silty,Corn,298.2,14.0,19290.3,Medium,S
'Wilayah Persekutuan',Silty,Corn,200.9,41.5,14220.5,Medium,S
'Wilayah Persekutuan',Silty,Corn,315.6,14.0,3168.2,High,A
'Wilayah Persekutuan',Silty,Corn,245.6,41.2,12334.2,High,S
'Wilayah Persekutuan',Silty,Paddy,128.5,21.5,3801.8,Low,C
'Wilayah Persekutuan',Silty,Paddy,71.7,42.5,12844.9,Low,A
'Wilayah Persekutuan',Silty,Paddy,281.7,2.3,3318.2,Medium,B
'Wilayah Persekutuan',Silty,Paddy,332.9,29.6,17061.2,Medium,A
'Wilayah Persekutuan',Silty,Paddy,84.9,18.0,2020.5,High,C
'Wilayah Persekutuan',Silty,Paddy,189.1,36.7,21621.1,High,S
'Wilayah Persekutuan',Silty,Papaya,144.5,20.4,16950.6,Low,C
'Wilayah Persekutuan',Silty,Papaya,158.8,42.7,19243.9,Low,A
'Wilayah Persekutuan',Silty,Papaya,296.2,7.9,2877.0,Medium,C
'Wilayah Persekutuan',Silty,Papaya,292.9,27.5,15609.7,Medium,A
'Wilayah Persekutuan',Silty,Papaya,195.2,41.0,18599.5,High,S
'Wilayah Persekutuan',Silty,Papaya,313.2,26.7,8245.2,High,S
'Wilayah Persekutuan',Silty,Durian,259.7,11.8,14917.2,Low,B
'Wilayah Persekutuan',Silty,Durian,206.6,19.8,13106.7,Low,C
'Wilayah Persekutuan',Silty,Durian,307.2,16.8,13903.6,Medium,A
'Wilayah Persekutuan',Silty,Durian,191.7,7.0,18726.6,Medium,B
'Wilayah Persekutuan',Silty,Durian,237.3,33.0,20513.9,High,S
'Wilayah Persekutuan',Silty,Durian,110.7,15.4,12768.4,High,B
